@RELATION widgets

@ATTRIBUTE id NUMERIC
@ATTRIBUTE name STRING
@ATTRIBUTE price NUMERIC
@ATTRIBUTE in_stock {True, False}

@DATA
1,'Widget 1',5.33,False
2,'Widget 2',7.67,True
3,'Widget 3',10.0,False
4,'Widget 4',12.33,True
5,'Widget 5',14.67,False
6,'Widget 6',17.0,True
7,'Widget 7',19.33,False
8,'Widget 8',21.67,True
9,'Widget 9',24.0,False
10,'Widget 10',26.33,True
11,'Widget 11',28.67,False
12,'Widget 12',31.0,True
13,'Widget 13',33.33,False
14,'Widget 14',35.67,True
15,'Widget 15',38.0,False
16,'Widget 16',40.33,True
17,'Widget 17',42.67,False
18,'Widget 18',45.0,True
19,'Widget 19',47.33,False
20,'Widget 20',49.67,True
21,'Widget 21',52.0,False
22,'Widget 22',54.33,True
23,'Widget 23',56.67,False
24,'Widget 24',59.0,True
25,'Widget 25',61.33,False
26,'Widget 26',63.67,True
27,'Widget 27',66.0,False
28,'Widget 28',68.33,True
29,'Widget 29',70.67,False
30,'Widget 30',73.0,True
31,'Widget 31',75.33,False
32,'Widget 32',77.67,True
33,'Widget 33',80.0,False
34,'Widget 34',82.33,True
35,'Widget 35',84.67,False
36,'Widget 36',87.0,True
37,'Widget 37',89.33,False
38,'Widget 38',91.67,True
39,'Widget 39',94.0,False
40,'Widget 40',96.33,True
41,'Widget 41',98.67,False
42,'Widget 42',101.0,True
43,'Widget 43',103.33,False
44,'Widget 44',105.67,True
45,'Widget 45',108.0,False
46,'Widget 46',110.33,True
47,'Widget 47',112.67,False
48,'Widget 48',115.0,True
49,'Widget 49',117.33,False
50,'Widget 50',119.67,True
51,'Widget 51',122.0,False
52,'Widget 52',124.33,True
53,'Widget 53',126.67,False
54,'Widget 54',129.0,True
55,'Widget 55',131.33,False
56,'Widget 56',133.67,True
57,'Widget 57',136.0,False
58,'Widget 58',138.33,True
59,'Widget 59',140.67,False
60,'Widget 60',143.0,True
61,'Widget 61',145.33,False
62,'Widget 62',147.67,True
63,'Widget 63',150.0,False
64,'Widget 64',152.33,True
65,'Widget 65',154.67,False
66,'Widget 66',157.0,True
67,'Widget 67',159.33,False
68,'Widget 68',161.67,True
69,'Widget 69',164.0,False
70,'Widget 70',166.33,True
71,'Widget 71',168.67,False
72,'Widget 72',4.33,True
73,'Widget 73',6.67,False
74,'Widget 74',9.0,True
75,'Widget 75',11.33,False
76,'Widget 76',13.67,True
77,'Widget 77',16.0,False
78,'Widget 78',18.33,True
79,'Widget 79',20.67,False
80,'Widget 80',23.0,True
81,'Widget 81',25.33,False
82,'Widget 82',27.67,True
83,'Widget 83',30.0,False
84,'Widget 84',32.33,True
85,'Widget 85',34.67,False
86,'Widget 86',37.0,True
87,'Widget 87',39.33,False
88,'Widget 88',41.67,True
89,'Widget 89',44.0,False
90,'Widget 90',46.33,True
91,'Widget 91',48.67,False
92,'Widget 92',51.0,True
93,'Widget 93',53.33,False
94,'Widget 94',55.67,True
95,'Widget 95',58.0,False
96,'Widget 96',60.33,True
97,'Widget 97',62.67,False
98,'Widget 98',65.0,True
99,'Widget 99',67.33,False
100,'Widget 100',69.67,True
101,'Widget 101',72.0,False
102,'Widget 102',74.33,True
103,'Widget 103',76.67,False
104,'Widget 104',79.0,True
105,'Widget 105',81.33,False
106,'Widget 106',83.67,True
107,'Widget 107',86.0,False
108,'Widget 108',88.33,True
109,'Widget 109',90.67,False
110,'Widget 110',93.0,True
111,'Widget 111',95.33,False
112,'Widget 112',97.67,True
113,'Widget 113',100.0,False
114,'Widget 114',102.33,True
115,'Widget 115',104.67,False
116,'Widget 116',107.0,True
117,'Widget 117',109.33,False
118,'Widget 118',111.67,True
119,'Widget 119',114.0,False
120,'Widget 120',116.33,True
121,'Widget 121',118.67,False
122,'Widget 122',121.0,True
123,'Widget 123',123.33,False
124,'Widget 124',125.67,True
125,'Widget 125',128.0,False
126,'Widget 126',130.33,True
127,'Widget 127',132.67,False
128,'Widget 128',135.0,True
129,'Widget 129',137.33,False
130,'Widget 130',139.67,True
131,'Widget 131',142.0,False
132,'Widget 132',144.33,True
133,'Widget 133',146.67,False
134,'Widget 134',149.0,True
135,'Widget 135',151.33,False
136,'Widget 136',153.67,True
137,'Widget 137',156.0,False
138,'Widget 138',158.33,True
139,'Widget 139',160.67,False
140,'Widget 140',163.0,True
141,'Widget 141',165.33,False
142,'Widget 142',167.67,True
143,'Widget 143',3.33,False
144,'Widget 144',5.67,True
145,'Widget 145',8.0,False
146,'Widget 146',10.33,True
147,'Widget 147',12.67,False
148,'Widget 148',15.0,True
149,'Widget 149',17.33,False
150,'Widget 150',19.67,True
151,'Widget 151',22.0,False
152,'Widget 152',24.33,True
153,'Widget 153',26.67,False
154,'Widget 154',29.0,True
155,'Widget 155',31.33,False
156,'Widget 156',33.67,True
157,'Widget 157',36.0,False
158,'Widget 158',38.33,True
159,'Widget 159',40.67,False
160,'Widget 160',43.0,True
161,'Widget 161',45.33,False
162,'Widget 162',47.67,True
163,'Widget 163',50.0,False
164,'Widget 164',52.33,True
165,'Widget 165',54.67,False
166,'Widget 166',57.0,True
167,'Widget 167',59.33,False
168,'Widget 168',61.67,True
169,'Widget 169',64.0,False
170,'Widget 170',66.33,True
171,'Widget 171',68.67,False
172,'Widget 172',71.0,True
173,'Widget 173',73.33,False
174,'Widget 174',75.67,True
175,'Widget 175',78.0,False
176,'Widget 176',80.33,True
177,'Widget 177',82.67,False
178,'Widget 178',85.0,True
179,'Widget 179',87.33,False
180,'Widget 180',89.67,True
181,'Widget 181',92.0,False
182,'Widget 182',94.33,True
183,'Widget 183',96.67,False
184,'Widget 184',99.0,True
185,'Widget 185',101.33,False
186,'Widget 186',103.67,True
187,'Widget 187',106.0,False
188,'Widget 188',108.33,True
189,'Widget 189',110.67,False
190,'Widget 190',113.0,True
191,'Widget 191',115.33,False
192,'Widget 192',117.67,True
193,'Widget 193',120.0,False
194,'Widget 194',122.33,True
195,'Widget 195',124.67,False
196,'Widget 196',127.0,True
197,'Widget 197',129.33,False
198,'Widget 198',131.67,True
199,'Widget 199',134.0,False
200,'Widget 200',136.33,True
201,'Widget 201',138.67,False
202,'Widget 202',141.0,True
203,'Widget 203',143.33,False
204,'Widget 204',145.67,True
205,'Widget 205',148.0,False
206,'Widget 206',150.33,True
207,'Widget 207',152.67,False
208,'Widget 208',155.0,True
209,'Widget 209',157.33,False
210,'Widget 210',159.67,True
211,'Widget 211',162.0,False
212,'Widget 212',164.33,True
213,'Widget 213',166.67,False
214,'Widget 214',169.0,True
215,'Widget 215',4.67,False
216,'Widget 216',7.0,True
217,'Widget 217',9.33,False
218,'Widget 218',11.67,True
219,'Widget 219',14.0,False
220,'Widget 220',16.33,True
221,'Widget 221',18.67,False
222,'Widget 222',21.0,True
223,'Widget 223',23.33,False
224,'Widget 224',25.67,True
225,'Widget 225',28.0,False
226,'Widget 226',30.33,True
227,'Widget 227',32.67,False
228,'Widget 228',35.0,True
229,'Widget 229',37.33,False
230,'Widget 230',39.67,True
231,'Widget 231',42.0,False
232,'Widget 232',44.33,True
233,'Widget 233',46.67,False
234,'Widget 234',49.0,True
235,'Widget 235',51.33,False
236,'Widget 236',53.67,True
237,'Widget 237',56.0,False
238,'Widget 238',58.33,True
239,'Widget 239',60.67,False
240,'Widget 240',63.0,True
241,'Widget 241',65.33,False
242,'Widget 242',67.67,True
243,'Widget 243',70.0,False
244,'Widget 244',72.33,True
245,'Widget 245',74.67,False
246,'Widget 246',77.0,True
247,'Widget 247',79.33,False
248,'Widget 248',81.67,True
249,'Widget 249',84.0,False
250,'Widget 250',86.33,True
251,'Widget 251',88.67,False
252,'Widget 252',91.0,True
253,'Widget 253',93.33,False
254,'Widget 254',95.67,True
255,'Widget 255',98.0,False
256,'Widget 256',100.33,True
257,'Widget 257',102.67,False
258,'Widget 258',105.0,True
259,'Widget 259',107.33,False
260,'Widget 260',109.67,True
261,'Widget 261',112.0,False
262,'Widget 262',114.33,True
263,'Widget 263',116.67,False
264,'Widget 264',119.0,True
265,'Widget 265',121.33,False
266,'Widget 266',123.67,True
267,'Widget 267',126.0,False
268,'Widget 268',128.33,True
269,'Widget 269',130.67,False
270,'Widget 270',133.0,True
271,'Widget 271',135.33,False
272,'Widget 272',137.67,True
273,'Widget 273',140.0,False
274,'Widget 274',142.33,True
275,'Widget 275',144.67,False
276,'Widget 276',147.0,True
277,'Widget 277',149.33,False
278,'Widget 278',151.67,True
279,'Widget 279',154.0,False
280,'Widget 280',156.33,True
281,'Widget 281',158.67,False
282,'Widget 282',161.0,True
283,'Widget 283',163.33,False
284,'Widget 284',165.67,True
285,'Widget 285',168.0,False
286,'Widget 286',3.67,True
287,'Widget 287',6.0,False
288,'Widget 288',8.33,True
289,'Widget 289',10.67,False
290,'Widget 290',13.0,True
291,'Widget 291',15.33,False
292,'Widget 292',17.67,True
293,'Widget 293',20.0,False
294,'Widget 294',22.33,True
295,'Widget 295',24.67,False
296,'Widget 296',27.0,True
297,'Widget 297',29.33,False
298,'Widget 298',31.67,True
299,'Widget 299',34.0,False
300,'Widget 300',36.33,True
