@RELATION widgets

@ATTRIBUTE id NUMERIC
@ATTRIBUTE name STRING
@ATTRIBUTE price NUMERIC
@ATTRIBUTE in_stock {True, False}

@DATA
1,'Widget 1',5.33,False
2,'Widget 2',7.67,True
3,'Widget 3',10.0,False
4,'Widget 4',12.33,True
5,'Widget 5',14.67,False
6,'Widget 6',17.0,True
7,'Widget 7',19.33,False
8,'Widget 8',21.67,True
9,'Widget 9',24.0,False
10,'Widget 10',26.33,True
11,'Widget 11',28.67,False
12,'Widget 12',31.0,True
13,'Widget 13',33.33,False
14,'Widget 14',35.67,True
15,'Widget 15',38.0,False
16,'Widget 16',40.33,True
17,'Widget 17',42.67,False
18,'Widget 18',45.0,True
19,'Widget 19',47.33,False
20,'Widget 20',49.67,True
21,'Widget 21',52.0,False
22,'Widget 22',54.33,True
23,'Widget 23',56.67,False
24,'Widget 24',59.0,True
25,'Widget 25',61.33,False
26,'Widget 26',63.67,True
27,'Widget 27',66.0,False
28,'Widget 28',68.33,True
29,'Widget 29',70.67,False
30,'Widget 30',73.0,True
31,'Widget 31',75.33,False
32,'Widget 32',77.67,True
33,'Widget 33',80.0,False
34,'Widget 34',82.33,True
35,'Widget 35',84.67,False
36,'Widget 36',87.0,True
37,'Widget 37',89.33,False
38,'Widget 38',91.67,True
39,'Widget 39',94.0,False
40,'Widget 40',96.33,True
41,'Widget 41',98.67,False
42,'Widget 42',101.0,True
43,'Widget 43',103.33,False
44,'Widget 44',105.67,True
45,'Widget 45',108.0,False
46,'Widget 46',110.33,True
47,'Widget 47',112.67,False
48,'Widget 48',115.0,True
49,'Widget 49',117.33,False
50,'Widget 50',119.67,True
51,'Widget 51',122.0,False
52,'Widget 52',124.33,True
53,'Widget 53',126.67,False
54,'Widget 54',129.0,True
55,'Widget 55',131.33,False
56,'Widget 56',133.67,True
57,'Widget 57',136.0,False
58,'Widget 58',138.33,True
59,'Widget 59',140.67,False
60,'Widget 60',143.0,True
61,'Widget 61',145.33,False
62,'Widget 62',147.67,True
63,'Widget 63',150.0,False
64,'Widget 64',152.33,True
65,'Widget 65',154.67,False
66,'Widget 66',157.0,True
67,'Widget 67',159.33,False
68,'Widget 68',161.67,True
69,'Widget 69',164.0,False
70,'Widget 70',166.33,True
71,'Widget 71',168.67,False
72,'Widget 72',4.33,True
73,'Widget 73',6.67,False
74,'Widget 74',9.0,True
75,'Widget 75',11.33,False
76,'Widget 76',13.67,True
77,'Widget 77',16.0,False
78,'Widget 78',18.33,True
79,'Widget 79',20.67,False
80,'Widget 80',23.0,True
81,'Widget 81',25.33,False
82,'Widget 82',27.67,True
83,'Widget 83',30.0,False
84,'Widget 84',32.33,True
85,'Widget 85',34.67,False
86,'Widget 86',37.0,True
87,'Widget 87',39.33,False
88,'Widget 88',41.67,True
89,'Widget 89',44.0,False
90,'Widget 90',46.33,True
91,'Widget 91',48.67,False
92,'Widget 92',51.0,True
93,'Widget 93',53.33,False
94,'Widget 94',55.67,True
95,'Widget 95',58.0,False
96,'Widget 96',60.33,True
97,'Widget 97',62.67,False
98,'Widget 98',65.0,True
99,'Widget 99',67.33,False
100,'Widget 100',69.67,True
101,'Widget 101',72.0,False
102,'Widget 102',74.33,True
103,'Widget 103',76.67,False
104,'Widget 104',79.0,True
105,'Widget 105',81.33,False
106,'Widget 106',83.67,True
107,'Widget 107',86.0,False
108,'Widget 108',88.33,True
109,'Widget 109',90.67,False
110,'Widget 110',93.0,True
111,'Widget 111',95.33,False
112,'Widget 112',97.67,True
113,'Widget 113',100.0,False
114,'Widget 114',102.33,True
115,'Widget 115',104.67,False
116,'Widget 116',107.0,True
117,'Widget 117',109.33,False
118,'Widget 118',111.67,True
119,'Widget 119',114.0,False
120,'Widget 120',116.33,True
121,'Widget 121',118.67,False
122,'Widget 122',121.0,True
123,'Widget 123',123.33,False
124,'Widget 124',125.67,True
125,'Widget 125',128.0,False
126,'Widget 126',130.33,True
127,'Widget 127',132.67,False
128,'Widget 128',135.0,True
129,'Widget 129',137.33,False
130,'Widget 130',139.67,True
131,'Widget 131',142.0,False
132,'Widget 132',144.33,True
133,'Widget 133',146.67,False
134,'Widget 134',149.0,True
135,'Widget 135',151.33,False
136,'Widget 136',153.67,True
137,'Widget 137',156.0,False
138,'Widget 138',158.33,True
139,'Widget 139',160.67,False
140,'Widget 140',163.0,True
141,'Widget 141',165.33,False
142,'Widget 142',167.67,True
143,'Widget 143',3.33,False
144,'Widget 144',5.67,True
145,'Widget 145',8.0,False
146,'Widget 146',10.33,True
147,'Widget 147',12.67,False
148,'Widget 148',15.0,True
149,'Widget 149',17.33,False
150,'Widget 150',19.67,True
151,'Widget 151',22.0,False
152,'Widget 152',24.33,True
153,'Widget 153',26.67,False
154,'Widget 154',29.0,True
155,'Widget 155',31.33,False
156,'Widget 156',33.67,True
157,'Widget 157',36.0,False
158,'Widget 158',38.33,True
159,'Widget 159',40.67,False
160,'Widget 160',43.0,True
161,'Widget 161',45.33,False
162,'Widget 162',47.67,True
163,'Widget 163',50.0,False
164,'Widget 164',52.33,True
165,'Widget 165',54.67,False
166,'Widget 166',57.0,True
167,'Widget 167',59.33,False
168,'Widget 168',61.67,True
169,'Widget 169',64.0,False
170,'Widget 170',66.33,True
171,'Widget 171',68.67,False
172,'Widget 172',71.0,True
173,'Widget 173',73.33,False
174,'Widget 174',75.67,True
175,'Widget 175',78.0,False
176,'Widget 176',80.33,True
177,'Widget 177',82.67,False
178,'Widget 178',85.0,True
179,'Widget 179',87.33,False
180,'Widget 180',89.67,True
181,'Widget 181',92.0,False
182,'Widget 182',94.33,True
183,'Widget 183',96.67,False
184,'Widget 184',99.0,True
185,'Widget 185',101.33,False
186,'Widget 186',103.67,True
187,'Widget 187',106.0,False
188,'Widget 188',108.33,True
189,'Widget 189',110.67,False
190,'Widget 190',113.0,True
191,'Widget 191',115.33,False
192,'Widget 192',117.67,True
193,'Widget 193',120.0,False
194,'Widget 194',122.33,True
195,'Widget 195',124.67,False
196,'Widget 196',127.0,True
197,'Widget 197',129.33,False
198,'Widget 198',131.67,True
199,'Widget 199',134.0,False
200,'Widget 200',136.33,True
201,'Widget 201',138.67,False
202,'Widget 202',141.0,True
203,'Widget 203',143.33,False
204,'Widget 204',145.67,True
205,'Widget 205',148.0,False
206,'Widget 206',150.33,True
207,'Widget 207',152.67,False
208,'Widget 208',155.0,True
209,'Widget 209',157.33,False
210,'Widget 210',159.67,True
211,'Widget 211',162.0,False
212,'Widget 212',164.33,True
213,'Widget 213',166.67,False
214,'Widget 214',169.0,True
215,'Widget 215',4.67,False
216,'Widget 216',7.0,True
217,'Widget 217',9.33,False
218,'Widget 218',11.67,True
219,'Widget 219',14.0,False
220,'Widget 220',16.33,True
221,'Widget 221',18.67,False
222,'Widget 222',21.0,True
223,'Widget 223',23.33,False
224,'Widget 224',25.67,True
225,'Widget 225',28.0,False
226,'Widget 226',30.33,True
227,'Widget 227',32.67,False
228,'Widget 228',35.0,True
229,'Widget 229',37.33,False
230,'Widget 230',39.67,True
231,'Widget 231',42.0,False
232,'Widget 232',44.33,True
233,'Widget 233',46.67,False
234,'Widget 234',49.0,True
235,'Widget 235',51.33,False
236,'Widget 236',53.67,True
237,'Widget 237',56.0,False
238,'Widget 238',58.33,True
239,'Widget 239',60.67,False
240,'Widget 240',63.0,True
241,'Widget 241',65.33,False
242,'Widget 242',67.67,True
243,'Widget 243',70.0,False
244,'Widget 244',72.33,True
245,'Widget 245',74.67,False
246,'Widget 246',77.0,True
247,'Widget 247',79.33,False
248,'Widget 248',81.67,True
249,'Widget 249',84.0,False
250,'Widget 250',86.33,True
251,'Widget 251',88.67,False
252,'Widget 252',91.0,True
253,'Widget 253',93.33,False
254,'Widget 254',95.67,True
255,'Widget 255',98.0,False
256,'Widget 256',100.33,True
257,'Widget 257',102.67,False
258,'Widget 258',105.0,True
259,'Widget 259',107.33,False
260,'Widget 260',109.67,True
261,'Widget 261',112.0,False
262,'Widget 262',114.33,True
263,'Widget 263',116.67,False
264,'Widget 264',119.0,True
265,'Widget 265',121.33,False
266,'Widget 266',123.67,True
267,'Widget 267',126.0,False
268,'Widget 268',128.33,True
269,'Widget 269',130.67,False
270,'Widget 270',133.0,True
271,'Widget 271',135.33,False
272,'Widget 272',137.67,True
273,'Widget 273',140.0,False
274,'Widget 274',142.33,True
275,'Widget 275',144.67,False
276,'Widget 276',147.0,True
277,'Widget 277',149.33,False
278,'Widget 278',151.67,True
279,'Widget 279',154.0,False
280,'Widget 280',156.33,True
281,'Widget 281',158.67,False
282,'Widget 282',161.0,True
283,'Widget 283',163.33,False
284,'Widget 284',165.67,True
285,'Widget 285',168.0,False
286,'Widget 286',3.67,True
287,'Widget 287',6.0,False
288,'Widget 288',8.33,True
289,'Widget 289',10.67,False
290,'Widget 290',13.0,True
291,'Widget 291',15.33,False
292,'Widget 292',17.67,True
293,'Widget 293',20.0,False
294,'Widget 294',22.33,True
295,'Widget 295',24.67,False
296,'Widget 296',27.0,True
297,'Widget 297',29.33,False
298,'Widget 298',31.67,True
299,'Widget 299',34.0,False
300,'Widget 300',36.33,True
301,'Widget 301',38.67,False
302,'Widget 302',41.0,True
303,'Widget 303',43.33,False
304,'Widget 304',45.67,True
305,'Widget 305',48.0,False
306,'Widget 306',50.33,True
307,'Widget 307',52.67,False
308,'Widget 308',55.0,True
309,'Widget 309',57.33,False
310,'Widget 310',59.67,True
311,'Widget 311',62.0,False
312,'Widget 312',64.33,True
313,'Widget 313',66.67,False
314,'Widget 314',69.0,True
315,'Widget 315',71.33,False
316,'Widget 316',73.67,True
317,'Widget 317',76.0,False
318,'Widget 318',78.33,True
319,'Widget 319',80.67,False
320,'Widget 320',83.0,True
321,'Widget 321',85.33,False
322,'Widget 322',87.67,True
323,'Widget 323',90.0,False
324,'Widget 324',92.33,True
325,'Widget 325',94.67,False
326,'Widget 326',97.0,True
327,'Widget 327',99.33,False
328,'Widget 328',101.67,True
329,'Widget 329',104.0,False
330,'Widget 330',106.33,True
331,'Widget 331',108.67,False
332,'Widget 332',111.0,True
333,'Widget 333',113.33,False
334,'Widget 334',115.67,True
335,'Widget 335',118.0,False
336,'Widget 336',120.33,True
337,'Widget 337',122.67,False
338,'Widget 338',125.0,True
339,'Widget 339',127.33,False
340,'Widget 340',129.67,True
341,'Widget 341',132.0,False
342,'Widget 342',134.33,True
343,'Widget 343',136.67,False
344,'Widget 344',139.0,True
345,'Widget 345',141.33,False
346,'Widget 346',143.67,True
347,'Widget 347',146.0,False
348,'Widget 348',148.33,True
349,'Widget 349',150.67,False
350,'Widget 350',153.0,True
351,'Widget 351',155.33,False
352,'Widget 352',157.67,True
353,'Widget 353',160.0,False
354,'Widget 354',162.33,True
355,'Widget 355',164.67,False
356,'Widget 356',167.0,True
357,'Widget 357',169.33,False
358,'Widget 358',5.0,True
359,'Widget 359',7.33,False
360,'Widget 360',9.67,True
361,'Widget 361',12.0,False
362,'Widget 362',14.33,True
363,'Widget 363',16.67,False
364,'Widget 364',19.0,True
365,'Widget 365',21.33,False
366,'Widget 366',23.67,True
367,'Widget 367',26.0,False
368,'Widget 368',28.33,True
369,'Widget 369',30.67,False
370,'Widget 370',33.0,True
371,'Widget 371',35.33,False
372,'Widget 372',37.67,True
373,'Widget 373',40.0,False
374,'Widget 374',42.33,True
375,'Widget 375',44.67,False
376,'Widget 376',47.0,True
377,'Widget 377',49.33,False
378,'Widget 378',51.67,True
379,'Widget 379',54.0,False
380,'Widget 380',56.33,True
381,'Widget 381',58.67,False
382,'Widget 382',61.0,True
383,'Widget 383',63.33,False
384,'Widget 384',65.67,True
385,'Widget 385',68.0,False
386,'Widget 386',70.33,True
387,'Widget 387',72.67,False
388,'Widget 388',75.0,True
389,'Widget 389',77.33,False
390,'Widget 390',79.67,True
391,'Widget 391',82.0,False
392,'Widget 392',84.33,True
393,'Widget 393',86.67,False
394,'Widget 394',89.0,True
395,'Widget 395',91.33,False
396,'Widget 396',93.67,True
397,'Widget 397',96.0,False
398,'Widget 398',98.33,True
399,'Widget 399',100.67,False
400,'Widget 400',103.0,True
401,'Widget 401',105.33,False
402,'Widget 402',107.67,True
403,'Widget 403',110.0,False
404,'Widget 404',112.33,True
405,'Widget 405',114.67,False
406,'Widget 406',117.0,True
407,'Widget 407',119.33,False
408,'Widget 408',121.67,True
409,'Widget 409',124.0,False
410,'Widget 410',126.33,True
411,'Widget 411',128.67,False
412,'Widget 412',131.0,True
413,'Widget 413',133.33,False
414,'Widget 414',135.67,True
415,'Widget 415',138.0,False
416,'Widget 416',140.33,True
417,'Widget 417',142.67,False
418,'Widget 418',145.0,True
419,'Widget 419',147.33,False
420,'Widget 420',149.67,True
421,'Widget 421',152.0,False
422,'Widget 422',154.33,True
423,'Widget 423',156.67,False
424,'Widget 424',159.0,True
425,'Widget 425',161.33,False
426,'Widget 426',163.67,True
427,'Widget 427',166.0,False
428,'Widget 428',168.33,True
429,'Widget 429',4.0,False
430,'Widget 430',6.33,True
431,'Widget 431',8.67,False
432,'Widget 432',11.0,True
433,'Widget 433',13.33,False
434,'Widget 434',15.67,True
435,'Widget 435',18.0,False
436,'Widget 436',20.33,True
437,'Widget 437',22.67,False
438,'Widget 438',25.0,True
439,'Widget 439',27.33,False
440,'Widget 440',29.67,True
441,'Widget 441',32.0,False
442,'Widget 442',34.33,True
443,'Widget 443',36.67,False
444,'Widget 444',39.0,True
445,'Widget 445',41.33,False
446,'Widget 446',43.67,True
447,'Widget 447',46.0,False
448,'Widget 448',48.33,True
449,'Widget 449',50.67,False
450,'Widget 450',53.0,True
451,'Widget 451',55.33,False
452,'Widget 452',57.67,True
453,'Widget 453',60.0,False
454,'Widget 454',62.33,True
455,'Widget 455',64.67,False
456,'Widget 456',67.0,True
457,'Widget 457',69.33,False
458,'Widget 458',71.67,True
459,'Widget 459',74.0,False
460,'Widget 460',76.33,True
461,'Widget 461',78.67,False
462,'Widget 462',81.0,True
463,'Widget 463',83.33,False
464,'Widget 464',85.67,True
465,'Widget 465',88.0,False
466,'Widget 466',90.33,True
467,'Widget 467',92.67,False
468,'Widget 468',95.0,True
469,'Widget 469',97.33,False
470,'Widget 470',99.67,True
471,'Widget 471',102.0,False
472,'Widget 472',104.33,True
473,'Widget 473',106.67,False
474,'Widget 474',109.0,True
475,'Widget 475',111.33,False
476,'Widget 476',113.67,True
477,'Widget 477',116.0,False
478,'Widget 478',118.33,True
479,'Widget 479',120.67,False
480,'Widget 480',123.0,True
481,'Widget 481',125.33,False
482,'Widget 482',127.67,True
483,'Widget 483',130.0,False
484,'Widget 484',132.33,True
485,'Widget 485',134.67,False
486,'Widget 486',137.0,True
487,'Widget 487',139.33,False
488,'Widget 488',141.67,True
489,'Widget 489',144.0,False
490,'Widget 490',146.33,True
491,'Widget 491',148.67,False
492,'Widget 492',151.0,True
493,'Widget 493',153.33,False
494,'Widget 494',155.67,True
495,'Widget 495',158.0,False
496,'Widget 496',160.33,True
497,'Widget 497',162.67,False
498,'Widget 498',165.0,True
499,'Widget 499',167.33,False
500,'Widget 500',3.0,True
501,'Widget 501',5.33,False
502,'Widget 502',7.67,True
503,'Widget 503',10.0,False
504,'Widget 504',12.33,True
505,'Widget 505',14.67,False
506,'Widget 506',17.0,True
507,'Widget 507',19.33,False
508,'Widget 508',21.67,True
509,'Widget 509',24.0,False
510,'Widget 510',26.33,True
511,'Widget 511',28.67,False
512,'Widget 512',31.0,True
513,'Widget 513',33.33,False
514,'Widget 514',35.67,True
515,'Widget 515',38.0,False
516,'Widget 516',40.33,True
517,'Widget 517',42.67,False
518,'Widget 518',45.0,True
519,'Widget 519',47.33,False
520,'Widget 520',49.67,True
521,'Widget 521',52.0,False
522,'Widget 522',54.33,True
523,'Widget 523',56.67,False
524,'Widget 524',59.0,True
525,'Widget 525',61.33,False
526,'Widget 526',63.67,True
527,'Widget 527',66.0,False
528,'Widget 528',68.33,True
529,'Widget 529',70.67,False
530,'Widget 530',73.0,True
531,'Widget 531',75.33,False
532,'Widget 532',77.67,True
533,'Widget 533',80.0,False
534,'Widget 534',82.33,True
535,'Widget 535',84.67,False
536,'Widget 536',87.0,True
537,'Widget 537',89.33,False
538,'Widget 538',91.67,True
539,'Widget 539',94.0,False
540,'Widget 540',96.33,True
541,'Widget 541',98.67,False
542,'Widget 542',101.0,True
543,'Widget 543',103.33,False
544,'Widget 544',105.67,True
545,'Widget 545',108.0,False
546,'Widget 546',110.33,True
547,'Widget 547',112.67,False
548,'Widget 548',115.0,True
549,'Widget 549',117.33,False
550,'Widget 550',119.67,True
551,'Widget 551',122.0,False
552,'Widget 552',124.33,True
553,'Widget 553',126.67,False
554,'Widget 554',129.0,True
555,'Widget 555',131.33,False
556,'Widget 556',133.67,True
557,'Widget 557',136.0,False
558,'Widget 558',138.33,True
559,'Widget 559',140.67,False
560,'Widget 560',143.0,True
561,'Widget 561',145.33,False
562,'Widget 562',147.67,True
563,'Widget 563',150.0,False
564,'Widget 564',152.33,True
565,'Widget 565',154.67,False
566,'Widget 566',157.0,True
567,'Widget 567',159.33,False
568,'Widget 568',161.67,True
569,'Widget 569',164.0,False
570,'Widget 570',166.33,True
571,'Widget 571',168.67,False
572,'Widget 572',4.33,True
573,'Widget 573',6.67,False
574,'Widget 574',9.0,True
575,'Widget 575',11.33,False
576,'Widget 576',13.67,True
577,'Widget 577',16.0,False
578,'Widget 578',18.33,True
579,'Widget 579',20.67,False
580,'Widget 580',23.0,True
581,'Widget 581',25.33,False
582,'Widget 582',27.67,True
583,'Widget 583',30.0,False
584,'Widget 584',32.33,True
585,'Widget 585',34.67,False
586,'Widget 586',37.0,True
587,'Widget 587',39.33,False
588,'Widget 588',41.67,True
589,'Widget 589',44.0,False
590,'Widget 590',46.33,True
591,'Widget 591',48.67,False
592,'Widget 592',51.0,True
593,'Widget 593',53.33,False
594,'Widget 594',55.67,True
595,'Widget 595',58.0,False
596,'Widget 596',60.33,True
597,'Widget 597',62.67,False
598,'Widget 598',65.0,True
599,'Widget 599',67.33,False
600,'Widget 600',69.67,True
601,'Widget 601',72.0,False
602,'Widget 602',74.33,True
603,'Widget 603',76.67,False
604,'Widget 604',79.0,True
605,'Widget 605',81.33,False
606,'Widget 606',83.67,True
607,'Widget 607',86.0,False
608,'Widget 608',88.33,True
609,'Widget 609',90.67,False
610,'Widget 610',93.0,True
611,'Widget 611',95.33,False
612,'Widget 612',97.67,True
613,'Widget 613',100.0,False
614,'Widget 614',102.33,True
615,'Widget 615',104.67,False
616,'Widget 616',107.0,True
617,'Widget 617',109.33,False
618,'Widget 618',111.67,True
619,'Widget 619',114.0,False
620,'Widget 620',116.33,True
621,'Widget 621',118.67,False
622,'Widget 622',121.0,True
623,'Widget 623',123.33,False
624,'Widget 624',125.67,True
625,'Widget 625',128.0,False
626,'Widget 626',130.33,True
627,'Widget 627',132.67,False
628,'Widget 628',135.0,True
629,'Widget 629',137.33,False
630,'Widget 630',139.67,True
631,'Widget 631',142.0,False
632,'Widget 632',144.33,True
633,'Widget 633',146.67,False
634,'Widget 634',149.0,True
635,'Widget 635',151.33,False
636,'Widget 636',153.67,True
637,'Widget 637',156.0,False
638,'Widget 638',158.33,True
639,'Widget 639',160.67,False
640,'Widget 640',163.0,True
641,'Widget 641',165.33,False
642,'Widget 642',167.67,True
643,'Widget 643',3.33,False
644,'Widget 644',5.67,True
645,'Widget 645',8.0,False
646,'Widget 646',10.33,True
647,'Widget 647',12.67,False
648,'Widget 648',15.0,True
649,'Widget 649',17.33,False
650,'Widget 650',19.67,True
651,'Widget 651',22.0,False
652,'Widget 652',24.33,True
653,'Widget 653',26.67,False
654,'Widget 654',29.0,True
655,'Widget 655',31.33,False
656,'Widget 656',33.67,True
657,'Widget 657',36.0,False
658,'Widget 658',38.33,True
659,'Widget 659',40.67,False
660,'Widget 660',43.0,True
661,'Widget 661',45.33,False
662,'Widget 662',47.67,True
663,'Widget 663',50.0,False
664,'Widget 664',52.33,True
665,'Widget 665',54.67,False
666,'Widget 666',57.0,True
667,'Widget 667',59.33,False
668,'Widget 668',61.67,True
669,'Widget 669',64.0,False
670,'Widget 670',66.33,True
671,'Widget 671',68.67,False
672,'Widget 672',71.0,True
673,'Widget 673',73.33,False
674,'Widget 674',75.67,True
675,'Widget 675',78.0,False
676,'Widget 676',80.33,True
677,'Widget 677',82.67,False
678,'Widget 678',85.0,True
679,'Widget 679',87.33,False
680,'Widget 680',89.67,True
681,'Widget 681',92.0,False
682,'Widget 682',94.33,True
683,'Widget 683',96.67,False
684,'Widget 684',99.0,True
685,'Widget 685',101.33,False
686,'Widget 686',103.67,True
687,'Widget 687',106.0,False
688,'Widget 688',108.33,True
689,'Widget 689',110.67,False
690,'Widget 690',113.0,True
691,'Widget 691',115.33,False
692,'Widget 692',117.67,True
693,'Widget 693',120.0,False
694,'Widget 694',122.33,True
695,'Widget 695',124.67,False
696,'Widget 696',127.0,True
697,'Widget 697',129.33,False
698,'Widget 698',131.67,True
699,'Widget 699',134.0,False
700,'Widget 700',136.33,True
701,'Widget 701',138.67,False
702,'Widget 702',141.0,True
703,'Widget 703',143.33,False
704,'Widget 704',145.67,True
705,'Widget 705',148.0,False
706,'Widget 706',150.33,True
707,'Widget 707',152.67,False
708,'Widget 708',155.0,True
709,'Widget 709',157.33,False
710,'Widget 710',159.67,True
711,'Widget 711',162.0,False
712,'Widget 712',164.33,True
713,'Widget 713',166.67,False
714,'Widget 714',169.0,True
715,'Widget 715',4.67,False
716,'Widget 716',7.0,True
717,'Widget 717',9.33,False
718,'Widget 718',11.67,True
719,'Widget 719',14.0,False
720,'Widget 720',16.33,True
721,'Widget 721',18.67,False
722,'Widget 722',21.0,True
723,'Widget 723',23.33,False
724,'Widget 724',25.67,True
725,'Widget 725',28.0,False
726,'Widget 726',30.33,True
727,'Widget 727',32.67,False
728,'Widget 728',35.0,True
729,'Widget 729',37.33,False
730,'Widget 730',39.67,True
731,'Widget 731',42.0,False
732,'Widget 732',44.33,True
733,'Widget 733',46.67,False
734,'Widget 734',49.0,True
735,'Widget 735',51.33,False
736,'Widget 736',53.67,True
737,'Widget 737',56.0,False
738,'Widget 738',58.33,True
739,'Widget 739',60.67,False
740,'Widget 740',63.0,True
741,'Widget 741',65.33,False
742,'Widget 742',67.67,True
743,'Widget 743',70.0,False
744,'Widget 744',72.33,True
745,'Widget 745',74.67,False
746,'Widget 746',77.0,True
747,'Widget 747',79.33,False
748,'Widget 748',81.67,True
749,'Widget 749',84.0,False
750,'Widget 750',86.33,True
751,'Widget 751',88.67,False
752,'Widget 752',91.0,True
753,'Widget 753',93.33,False
754,'Widget 754',95.67,True
755,'Widget 755',98.0,False
756,'Widget 756',100.33,True
757,'Widget 757',102.67,False
758,'Widget 758',105.0,True
759,'Widget 759',107.33,False
760,'Widget 760',109.67,True
761,'Widget 761',112.0,False
762,'Widget 762',114.33,True
763,'Widget 763',116.67,False
764,'Widget 764',119.0,True
765,'Widget 765',121.33,False
766,'Widget 766',123.67,True
767,'Widget 767',126.0,False
768,'Widget 768',128.33,True
769,'Widget 769',130.67,False
770,'Widget 770',133.0,True
771,'Widget 771',135.33,False
772,'Widget 772',137.67,True
773,'Widget 773',140.0,False
774,'Widget 774',142.33,True
775,'Widget 775',144.67,False
776,'Widget 776',147.0,True
777,'Widget 777',149.33,False
778,'Widget 778',151.67,True
779,'Widget 779',154.0,False
780,'Widget 780',156.33,True
781,'Widget 781',158.67,False
782,'Widget 782',161.0,True
783,'Widget 783',163.33,False
784,'Widget 784',165.67,True
785,'Widget 785',168.0,False
786,'Widget 786',3.67,True
787,'Widget 787',6.0,False
788,'Widget 788',8.33,True
789,'Widget 789',10.67,False
790,'Widget 790',13.0,True
791,'Widget 791',15.33,False
792,'Widget 792',17.67,True
793,'Widget 793',20.0,False
794,'Widget 794',22.33,True
795,'Widget 795',24.67,False
796,'Widget 796',27.0,True
797,'Widget 797',29.33,False
798,'Widget 798',31.67,True
799,'Widget 799',34.0,False
800,'Widget 800',36.33,True
801,'Widget 801',38.67,False
802,'Widget 802',41.0,True
803,'Widget 803',43.33,False
804,'Widget 804',45.67,True
805,'Widget 805',48.0,False
806,'Widget 806',50.33,True
807,'Widget 807',52.67,False
808,'Widget 808',55.0,True
809,'Widget 809',57.33,False
810,'Widget 810',59.67,True
811,'Widget 811',62.0,False
812,'Widget 812',64.33,True
813,'Widget 813',66.67,False
814,'Widget 814',69.0,True
815,'Widget 815',71.33,False
816,'Widget 816',73.67,True
817,'Widget 817',76.0,False
818,'Widget 818',78.33,True
819,'Widget 819',80.67,False
820,'Widget 820',83.0,True
821,'Widget 821',85.33,False
822,'Widget 822',87.67,True
823,'Widget 823',90.0,False
824,'Widget 824',92.33,True
825,'Widget 825',94.67,False
826,'Widget 826',97.0,True
827,'Widget 827',99.33,False
828,'Widget 828',101.67,True
829,'Widget 829',104.0,False
830,'Widget 830',106.33,True
831,'Widget 831',108.67,False
832,'Widget 832',111.0,True
833,'Widget 833',113.33,False
834,'Widget 834',115.67,True
835,'Widget 835',118.0,False
836,'Widget 836',120.33,True
837,'Widget 837',122.67,False
838,'Widget 838',125.0,True
839,'Widget 839',127.33,False
840,'Widget 840',129.67,True
841,'Widget 841',132.0,False
842,'Widget 842',134.33,True
843,'Widget 843',136.67,False
844,'Widget 844',139.0,True
845,'Widget 845',141.33,False
846,'Widget 846',143.67,True
847,'Widget 847',146.0,False
848,'Widget 848',148.33,True
849,'Widget 849',150.67,False
850,'Widget 850',153.0,True
851,'Widget 851',155.33,False
852,'Widget 852',157.67,True
853,'Widget 853',160.0,False
854,'Widget 854',162.33,True
855,'Widget 855',164.67,False
856,'Widget 856',167.0,True
857,'Widget 857',169.33,False
858,'Widget 858',5.0,True
859,'Widget 859',7.33,False
860,'Widget 860',9.67,True
861,'Widget 861',12.0,False
862,'Widget 862',14.33,True
863,'Widget 863',16.67,False
864,'Widget 864',19.0,True
865,'Widget 865',21.33,False
866,'Widget 866',23.67,True
867,'Widget 867',26.0,False
868,'Widget 868',28.33,True
869,'Widget 869',30.67,False
870,'Widget 870',33.0,True
871,'Widget 871',35.33,False
872,'Widget 872',37.67,True
873,'Widget 873',40.0,False
874,'Widget 874',42.33,True
875,'Widget 875',44.67,False
876,'Widget 876',47.0,True
877,'Widget 877',49.33,False
878,'Widget 878',51.67,True
879,'Widget 879',54.0,False
880,'Widget 880',56.33,True
881,'Widget 881',58.67,False
882,'Widget 882',61.0,True
883,'Widget 883',63.33,False
884,'Widget 884',65.67,True
885,'Widget 885',68.0,False
886,'Widget 886',70.33,True
887,'Widget 887',72.67,False
888,'Widget 888',75.0,True
889,'Widget 889',77.33,False
890,'Widget 890',79.67,True
891,'Widget 891',82.0,False
892,'Widget 892',84.33,True
893,'Widget 893',86.67,False
894,'Widget 894',89.0,True
895,'Widget 895',91.33,False
896,'Widget 896',93.67,True
897,'Widget 897',96.0,False
898,'Widget 898',98.33,True
899,'Widget 899',100.67,False
900,'Widget 900',103.0,True
901,'Widget 901',105.33,False
902,'Widget 902',107.67,True
903,'Widget 903',110.0,False
904,'Widget 904',112.33,True
905,'Widget 905',114.67,False
906,'Widget 906',117.0,True
907,'Widget 907',119.33,False
908,'Widget 908',121.67,True
909,'Widget 909',124.0,False
910,'Widget 910',126.33,True
911,'Widget 911',128.67,False
912,'Widget 912',131.0,True
913,'Widget 913',133.33,False
914,'Widget 914',135.67,True
915,'Widget 915',138.0,False
916,'Widget 916',140.33,True
917,'Widget 917',142.67,False
918,'Widget 918',145.0,True
919,'Widget 919',147.33,False
920,'Widget 920',149.67,True
921,'Widget 921',152.0,False
922,'Widget 922',154.33,True
923,'Widget 923',156.67,False
924,'Widget 924',159.0,True
925,'Widget 925',161.33,False
926,'Widget 926',163.67,True
927,'Widget 927',166.0,False
928,'Widget 928',168.33,True
929,'Widget 929',4.0,False
930,'Widget 930',6.33,True
931,'Widget 931',8.67,False
932,'Widget 932',11.0,True
933,'Widget 933',13.33,False
934,'Widget 934',15.67,True
935,'Widget 935',18.0,False
936,'Widget 936',20.33,True
937,'Widget 937',22.67,False
938,'Widget 938',25.0,True
939,'Widget 939',27.33,False
940,'Widget 940',29.67,True
941,'Widget 941',32.0,False
942,'Widget 942',34.33,True
943,'Widget 943',36.67,False
944,'Widget 944',39.0,True
945,'Widget 945',41.33,False
946,'Widget 946',43.67,True
947,'Widget 947',46.0,False
948,'Widget 948',48.33,True
949,'Widget 949',50.67,False
950,'Widget 950',53.0,True
951,'Widget 951',55.33,False
952,'Widget 952',57.67,True
953,'Widget 953',60.0,False
954,'Widget 954',62.33,True
955,'Widget 955',64.67,False
956,'Widget 956',67.0,True
957,'Widget 957',69.33,False
958,'Widget 958',71.67,True
959,'Widget 959',74.0,False
960,'Widget 960',76.33,True
961,'Widget 961',78.67,False
962,'Widget 962',81.0,True
963,'Widget 963',83.33,False
964,'Widget 964',85.67,True
965,'Widget 965',88.0,False
966,'Widget 966',90.33,True
967,'Widget 967',92.67,False
968,'Widget 968',95.0,True
969,'Widget 969',97.33,False
970,'Widget 970',99.67,True
971,'Widget 971',102.0,False
972,'Widget 972',104.33,True
973,'Widget 973',106.67,False
974,'Widget 974',109.0,True
975,'Widget 975',111.33,False
976,'Widget 976',113.67,True
977,'Widget 977',116.0,False
978,'Widget 978',118.33,True
979,'Widget 979',120.67,False
980,'Widget 980',123.0,True
981,'Widget 981',125.33,False
982,'Widget 982',127.67,True
983,'Widget 983',130.0,False
984,'Widget 984',132.33,True
985,'Widget 985',134.67,False
986,'Widget 986',137.0,True
987,'Widget 987',139.33,False
988,'Widget 988',141.67,True
989,'Widget 989',144.0,False
990,'Widget 990',146.33,True
991,'Widget 991',148.67,False
992,'Widget 992',151.0,True
993,'Widget 993',153.33,False
994,'Widget 994',155.67,True
995,'Widget 995',158.0,False
996,'Widget 996',160.33,True
997,'Widget 997',162.67,False
998,'Widget 998',165.0,True
999,'Widget 999',167.33,False
1000,'Widget 1000',3.0,True
1001,'Widget 1001',5.33,False
1002,'Widget 1002',7.67,True
1003,'Widget 1003',10.0,False
1004,'Widget 1004',12.33,True
1005,'Widget 1005',14.67,False
1006,'Widget 1006',17.0,True
1007,'Widget 1007',19.33,False
1008,'Widget 1008',21.67,True
1009,'Widget 1009',24.0,False
1010,'Widget 1010',26.33,True
1011,'Widget 1011',28.67,False
1012,'Widget 1012',31.0,True
1013,'Widget 1013',33.33,False
1014,'Widget 1014',35.67,True
1015,'Widget 1015',38.0,False
1016,'Widget 1016',40.33,True
1017,'Widget 1017',42.67,False
1018,'Widget 1018',45.0,True
1019,'Widget 1019',47.33,False
1020,'Widget 1020',49.67,True
1021,'Widget 1021',52.0,False
1022,'Widget 1022',54.33,True
1023,'Widget 1023',56.67,False
1024,'Widget 1024',59.0,True
1025,'Widget 1025',61.33,False
1026,'Widget 1026',63.67,True
1027,'Widget 1027',66.0,False
1028,'Widget 1028',68.33,True
1029,'Widget 1029',70.67,False
1030,'Widget 1030',73.0,True
1031,'Widget 1031',75.33,False
1032,'Widget 1032',77.67,True
1033,'Widget 1033',80.0,False
1034,'Widget 1034',82.33,True
1035,'Widget 1035',84.67,False
1036,'Widget 1036',87.0,True
1037,'Widget 1037',89.33,False
1038,'Widget 1038',91.67,True
1039,'Widget 1039',94.0,False
1040,'Widget 1040',96.33,True
1041,'Widget 1041',98.67,False
1042,'Widget 1042',101.0,True
1043,'Widget 1043',103.33,False
1044,'Widget 1044',105.67,True
1045,'Widget 1045',108.0,False
1046,'Widget 1046',110.33,True
1047,'Widget 1047',112.67,False
1048,'Widget 1048',115.0,True
1049,'Widget 1049',117.33,False
1050,'Widget 1050',119.67,True
1051,'Widget 1051',122.0,False
1052,'Widget 1052',124.33,True
1053,'Widget 1053',126.67,False
1054,'Widget 1054',129.0,True
1055,'Widget 1055',131.33,False
1056,'Widget 1056',133.67,True
1057,'Widget 1057',136.0,False
1058,'Widget 1058',138.33,True
1059,'Widget 1059',140.67,False
1060,'Widget 1060',143.0,True
1061,'Widget 1061',145.33,False
1062,'Widget 1062',147.67,True
1063,'Widget 1063',150.0,False
1064,'Widget 1064',152.33,True
1065,'Widget 1065',154.67,False
1066,'Widget 1066',157.0,True
1067,'Widget 1067',159.33,False
1068,'Widget 1068',161.67,True
1069,'Widget 1069',164.0,False
1070,'Widget 1070',166.33,True
1071,'Widget 1071',168.67,False
1072,'Widget 1072',4.33,True
1073,'Widget 1073',6.67,False
1074,'Widget 1074',9.0,True
1075,'Widget 1075',11.33,False
1076,'Widget 1076',13.67,True
1077,'Widget 1077',16.0,False
1078,'Widget 1078',18.33,True
1079,'Widget 1079',20.67,False
1080,'Widget 1080',23.0,True
1081,'Widget 1081',25.33,False
1082,'Widget 1082',27.67,True
1083,'Widget 1083',30.0,False
1084,'Widget 1084',32.33,True
1085,'Widget 1085',34.67,False
1086,'Widget 1086',37.0,True
1087,'Widget 1087',39.33,False
1088,'Widget 1088',41.67,True
1089,'Widget 1089',44.0,False
1090,'Widget 1090',46.33,True
1091,'Widget 1091',48.67,False
1092,'Widget 1092',51.0,True
1093,'Widget 1093',53.33,False
1094,'Widget 1094',55.67,True
1095,'Widget 1095',58.0,False
1096,'Widget 1096',60.33,True
1097,'Widget 1097',62.67,False
1098,'Widget 1098',65.0,True
1099,'Widget 1099',67.33,False
1100,'Widget 1100',69.67,True
1101,'Widget 1101',72.0,False
1102,'Widget 1102',74.33,True
1103,'Widget 1103',76.67,False
1104,'Widget 1104',79.0,True
1105,'Widget 1105',81.33,False
1106,'Widget 1106',83.67,True
1107,'Widget 1107',86.0,False
1108,'Widget 1108',88.33,True
1109,'Widget 1109',90.67,False
1110,'Widget 1110',93.0,True
1111,'Widget 1111',95.33,False
1112,'Widget 1112',97.67,True
1113,'Widget 1113',100.0,False
1114,'Widget 1114',102.33,True
1115,'Widget 1115',104.67,False
1116,'Widget 1116',107.0,True
1117,'Widget 1117',109.33,False
1118,'Widget 1118',111.67,True
1119,'Widget 1119',114.0,False
1120,'Widget 1120',116.33,True
1121,'Widget 1121',118.67,False
1122,'Widget 1122',121.0,True
1123,'Widget 1123',123.33,False
1124,'Widget 1124',125.67,True
1125,'Widget 1125',128.0,False
1126,'Widget 1126',130.33,True
1127,'Widget 1127',132.67,False
1128,'Widget 1128',135.0,True
1129,'Widget 1129',137.33,False
1130,'Widget 1130',139.67,True
1131,'Widget 1131',142.0,False
1132,'Widget 1132',144.33,True
1133,'Widget 1133',146.67,False
1134,'Widget 1134',149.0,True
1135,'Widget 1135',151.33,False
1136,'Widget 1136',153.67,True
1137,'Widget 1137',156.0,False
1138,'Widget 1138',158.33,True
1139,'Widget 1139',160.67,False
1140,'Widget 1140',163.0,True
1141,'Widget 1141',165.33,False
1142,'Widget 1142',167.67,True
1143,'Widget 1143',3.33,False
1144,'Widget 1144',5.67,True
1145,'Widget 1145',8.0,False
1146,'Widget 1146',10.33,True
1147,'Widget 1147',12.67,False
1148,'Widget 1148',15.0,True
1149,'Widget 1149',17.33,False
1150,'Widget 1150',19.67,True
1151,'Widget 1151',22.0,False
1152,'Widget 1152',24.33,True
1153,'Widget 1153',26.67,False
1154,'Widget 1154',29.0,True
1155,'Widget 1155',31.33,False
1156,'Widget 1156',33.67,True
1157,'Widget 1157',36.0,False
1158,'Widget 1158',38.33,True
1159,'Widget 1159',40.67,False
1160,'Widget 1160',43.0,True
1161,'Widget 1161',45.33,False
1162,'Widget 1162',47.67,True
1163,'Widget 1163',50.0,False
1164,'Widget 1164',52.33,True
1165,'Widget 1165',54.67,False
1166,'Widget 1166',57.0,True
1167,'Widget 1167',59.33,False
1168,'Widget 1168',61.67,True
1169,'Widget 1169',64.0,False
1170,'Widget 1170',66.33,True
1171,'Widget 1171',68.67,False
1172,'Widget 1172',71.0,True
1173,'Widget 1173',73.33,False
1174,'Widget 1174',75.67,True
1175,'Widget 1175',78.0,False
1176,'Widget 1176',80.33,True
1177,'Widget 1177',82.67,False
1178,'Widget 1178',85.0,True
1179,'Widget 1179',87.33,False
1180,'Widget 1180',89.67,True
1181,'Widget 1181',92.0,False
1182,'Widget 1182',94.33,True
1183,'Widget 1183',96.67,False
1184,'Widget 1184',99.0,True
1185,'Widget 1185',101.33,False
1186,'Widget 1186',103.67,True
1187,'Widget 1187',106.0,False
1188,'Widget 1188',108.33,True
1189,'Widget 1189',110.67,False
1190,'Widget 1190',113.0,True
1191,'Widget 1191',115.33,False
1192,'Widget 1192',117.67,True
1193,'Widget 1193',120.0,False
1194,'Widget 1194',122.33,True
1195,'Widget 1195',124.67,False
1196,'Widget 1196',127.0,True
1197,'Widget 1197',129.33,False
1198,'Widget 1198',131.67,True
1199,'Widget 1199',134.0,False
1200,'Widget 1200',136.33,True
1201,'Widget 1201',138.67,False
1202,'Widget 1202',141.0,True
1203,'Widget 1203',143.33,False
1204,'Widget 1204',145.67,True
1205,'Widget 1205',148.0,False
1206,'Widget 1206',150.33,True
1207,'Widget 1207',152.67,False
1208,'Widget 1208',155.0,True
1209,'Widget 1209',157.33,False
1210,'Widget 1210',159.67,True
1211,'Widget 1211',162.0,False
1212,'Widget 1212',164.33,True
1213,'Widget 1213',166.67,False
1214,'Widget 1214',169.0,True
1215,'Widget 1215',4.67,False
1216,'Widget 1216',7.0,True
1217,'Widget 1217',9.33,False
1218,'Widget 1218',11.67,True
1219,'Widget 1219',14.0,False
1220,'Widget 1220',16.33,True
1221,'Widget 1221',18.67,False
1222,'Widget 1222',21.0,True
1223,'Widget 1223',23.33,False
1224,'Widget 1224',25.67,True
1225,'Widget 1225',28.0,False
1226,'Widget 1226',30.33,True
1227,'Widget 1227',32.67,False
1228,'Widget 1228',35.0,True
1229,'Widget 1229',37.33,False
1230,'Widget 1230',39.67,True
1231,'Widget 1231',42.0,False
1232,'Widget 1232',44.33,True
1233,'Widget 1233',46.67,False
1234,'Widget 1234',49.0,True
1235,'Widget 1235',51.33,False
1236,'Widget 1236',53.67,True
1237,'Widget 1237',56.0,False
1238,'Widget 1238',58.33,True
1239,'Widget 1239',60.67,False
1240,'Widget 1240',63.0,True
1241,'Widget 1241',65.33,False
1242,'Widget 1242',67.67,True
1243,'Widget 1243',70.0,False
1244,'Widget 1244',72.33,True
1245,'Widget 1245',74.67,False
1246,'Widget 1246',77.0,True
1247,'Widget 1247',79.33,False
1248,'Widget 1248',81.67,True
1249,'Widget 1249',84.0,False
1250,'Widget 1250',86.33,True
1251,'Widget 1251',88.67,False
1252,'Widget 1252',91.0,True
1253,'Widget 1253',93.33,False
1254,'Widget 1254',95.67,True
1255,'Widget 1255',98.0,False
1256,'Widget 1256',100.33,True
1257,'Widget 1257',102.67,False
1258,'Widget 1258',105.0,True
1259,'Widget 1259',107.33,False
1260,'Widget 1260',109.67,True
1261,'Widget 1261',112.0,False
1262,'Widget 1262',114.33,True
1263,'Widget 1263',116.67,False
1264,'Widget 1264',119.0,True
1265,'Widget 1265',121.33,False
1266,'Widget 1266',123.67,True
1267,'Widget 1267',126.0,False
1268,'Widget 1268',128.33,True
1269,'Widget 1269',130.67,False
1270,'Widget 1270',133.0,True
1271,'Widget 1271',135.33,False
1272,'Widget 1272',137.67,True
1273,'Widget 1273',140.0,False
1274,'Widget 1274',142.33,True
1275,'Widget 1275',144.67,False
1276,'Widget 1276',147.0,True
1277,'Widget 1277',149.33,False
1278,'Widget 1278',151.67,True
1279,'Widget 1279',154.0,False
1280,'Widget 1280',156.33,True
1281,'Widget 1281',158.67,False
1282,'Widget 1282',161.0,True
1283,'Widget 1283',163.33,False
1284,'Widget 1284',165.67,True
1285,'Widget 1285',168.0,False
1286,'Widget 1286',3.67,True
1287,'Widget 1287',6.0,False
1288,'Widget 1288',8.33,True
1289,'Widget 1289',10.67,False
1290,'Widget 1290',13.0,True
1291,'Widget 1291',15.33,False
1292,'Widget 1292',17.67,True
1293,'Widget 1293',20.0,False
1294,'Widget 1294',22.33,True
1295,'Widget 1295',24.67,False
1296,'Widget 1296',27.0,True
1297,'Widget 1297',29.33,False
1298,'Widget 1298',31.67,True
1299,'Widget 1299',34.0,False
1300,'Widget 1300',36.33,True
1301,'Widget 1301',38.67,False
1302,'Widget 1302',41.0,True
1303,'Widget 1303',43.33,False
1304,'Widget 1304',45.67,True
1305,'Widget 1305',48.0,False
1306,'Widget 1306',50.33,True
1307,'Widget 1307',52.67,False
1308,'Widget 1308',55.0,True
1309,'Widget 1309',57.33,False
1310,'Widget 1310',59.67,True
1311,'Widget 1311',62.0,False
1312,'Widget 1312',64.33,True
1313,'Widget 1313',66.67,False
1314,'Widget 1314',69.0,True
1315,'Widget 1315',71.33,False
1316,'Widget 1316',73.67,True
1317,'Widget 1317',76.0,False
1318,'Widget 1318',78.33,True
1319,'Widget 1319',80.67,False
1320,'Widget 1320',83.0,True
1321,'Widget 1321',85.33,False
1322,'Widget 1322',87.67,True
1323,'Widget 1323',90.0,False
1324,'Widget 1324',92.33,True
1325,'Widget 1325',94.67,False
1326,'Widget 1326',97.0,True
1327,'Widget 1327',99.33,False
1328,'Widget 1328',101.67,True
1329,'Widget 1329',104.0,False
1330,'Widget 1330',106.33,True
1331,'Widget 1331',108.67,False
1332,'Widget 1332',111.0,True
1333,'Widget 1333',113.33,False
1334,'Widget 1334',115.67,True
1335,'Widget 1335',118.0,False
1336,'Widget 1336',120.33,True
1337,'Widget 1337',122.67,False
1338,'Widget 1338',125.0,True
1339,'Widget 1339',127.33,False
1340,'Widget 1340',129.67,True
1341,'Widget 1341',132.0,False
1342,'Widget 1342',134.33,True
1343,'Widget 1343',136.67,False
1344,'Widget 1344',139.0,True
1345,'Widget 1345',141.33,False
1346,'Widget 1346',143.67,True
1347,'Widget 1347',146.0,False
1348,'Widget 1348',148.33,True
1349,'Widget 1349',150.67,False
1350,'Widget 1350',153.0,True
1351,'Widget 1351',155.33,False
1352,'Widget 1352',157.67,True
1353,'Widget 1353',160.0,False
1354,'Widget 1354',162.33,True
1355,'Widget 1355',164.67,False
1356,'Widget 1356',167.0,True
1357,'Widget 1357',169.33,False
1358,'Widget 1358',5.0,True
1359,'Widget 1359',7.33,False
1360,'Widget 1360',9.67,True
1361,'Widget 1361',12.0,False
1362,'Widget 1362',14.33,True
1363,'Widget 1363',16.67,False
1364,'Widget 1364',19.0,True
1365,'Widget 1365',21.33,False
1366,'Widget 1366',23.67,True
1367,'Widget 1367',26.0,False
1368,'Widget 1368',28.33,True
1369,'Widget 1369',30.67,False
1370,'Widget 1370',33.0,True
1371,'Widget 1371',35.33,False
1372,'Widget 1372',37.67,True
1373,'Widget 1373',40.0,False
1374,'Widget 1374',42.33,True
1375,'Widget 1375',44.67,False
1376,'Widget 1376',47.0,True
1377,'Widget 1377',49.33,False
1378,'Widget 1378',51.67,True
1379,'Widget 1379',54.0,False
1380,'Widget 1380',56.33,True
1381,'Widget 1381',58.67,False
1382,'Widget 1382',61.0,True
1383,'Widget 1383',63.33,False
1384,'Widget 1384',65.67,True
1385,'Widget 1385',68.0,False
1386,'Widget 1386',70.33,True
1387,'Widget 1387',72.67,False
1388,'Widget 1388',75.0,True
1389,'Widget 1389',77.33,False
1390,'Widget 1390',79.67,True
1391,'Widget 1391',82.0,False
1392,'Widget 1392',84.33,True
1393,'Widget 1393',86.67,False
1394,'Widget 1394',89.0,True
1395,'Widget 1395',91.33,False
1396,'Widget 1396',93.67,True
1397,'Widget 1397',96.0,False
1398,'Widget 1398',98.33,True
1399,'Widget 1399',100.67,False
1400,'Widget 1400',103.0,True
1401,'Widget 1401',105.33,False
1402,'Widget 1402',107.67,True
1403,'Widget 1403',110.0,False
1404,'Widget 1404',112.33,True
1405,'Widget 1405',114.67,False
1406,'Widget 1406',117.0,True
1407,'Widget 1407',119.33,False
1408,'Widget 1408',121.67,True
1409,'Widget 1409',124.0,False
1410,'Widget 1410',126.33,True
1411,'Widget 1411',128.67,False
1412,'Widget 1412',131.0,True
1413,'Widget 1413',133.33,False
1414,'Widget 1414',135.67,True
1415,'Widget 1415',138.0,False
1416,'Widget 1416',140.33,True
1417,'Widget 1417',142.67,False
1418,'Widget 1418',145.0,True
1419,'Widget 1419',147.33,False
1420,'Widget 1420',149.67,True
1421,'Widget 1421',152.0,False
1422,'Widget 1422',154.33,True
1423,'Widget 1423',156.67,False
1424,'Widget 1424',159.0,True
1425,'Widget 1425',161.33,False
1426,'Widget 1426',163.67,True
1427,'Widget 1427',166.0,False
1428,'Widget 1428',168.33,True
1429,'Widget 1429',4.0,False
1430,'Widget 1430',6.33,True
1431,'Widget 1431',8.67,False
1432,'Widget 1432',11.0,True
1433,'Widget 1433',13.33,False
1434,'Widget 1434',15.67,True
1435,'Widget 1435',18.0,False
1436,'Widget 1436',20.33,True
1437,'Widget 1437',22.67,False
1438,'Widget 1438',25.0,True
1439,'Widget 1439',27.33,False
1440,'Widget 1440',29.67,True
1441,'Widget 1441',32.0,False
1442,'Widget 1442',34.33,True
1443,'Widget 1443',36.67,False
1444,'Widget 1444',39.0,True
1445,'Widget 1445',41.33,False
1446,'Widget 1446',43.67,True
1447,'Widget 1447',46.0,False
1448,'Widget 1448',48.33,True
1449,'Widget 1449',50.67,False
1450,'Widget 1450',53.0,True
1451,'Widget 1451',55.33,False
1452,'Widget 1452',57.67,True
1453,'Widget 1453',60.0,False
1454,'Widget 1454',62.33,True
1455,'Widget 1455',64.67,False
1456,'Widget 1456',67.0,True
1457,'Widget 1457',69.33,False
1458,'Widget 1458',71.67,True
1459,'Widget 1459',74.0,False
1460,'Widget 1460',76.33,True
1461,'Widget 1461',78.67,False
1462,'Widget 1462',81.0,True
1463,'Widget 1463',83.33,False
1464,'Widget 1464',85.67,True
1465,'Widget 1465',88.0,False
1466,'Widget 1466',90.33,True
1467,'Widget 1467',92.67,False
1468,'Widget 1468',95.0,True
1469,'Widget 1469',97.33,False
1470,'Widget 1470',99.67,True
1471,'Widget 1471',102.0,False
1472,'Widget 1472',104.33,True
1473,'Widget 1473',106.67,False
1474,'Widget 1474',109.0,True
1475,'Widget 1475',111.33,False
1476,'Widget 1476',113.67,True
1477,'Widget 1477',116.0,False
1478,'Widget 1478',118.33,True
1479,'Widget 1479',120.67,False
1480,'Widget 1480',123.0,True
1481,'Widget 1481',125.33,False
1482,'Widget 1482',127.67,True
1483,'Widget 1483',130.0,False
1484,'Widget 1484',132.33,True
1485,'Widget 1485',134.67,False
1486,'Widget 1486',137.0,True
1487,'Widget 1487',139.33,False
1488,'Widget 1488',141.67,True
1489,'Widget 1489',144.0,False
1490,'Widget 1490',146.33,True
1491,'Widget 1491',148.67,False
1492,'Widget 1492',151.0,True
1493,'Widget 1493',153.33,False
1494,'Widget 1494',155.67,True
1495,'Widget 1495',158.0,False
1496,'Widget 1496',160.33,True
1497,'Widget 1497',162.67,False
1498,'Widget 1498',165.0,True
1499,'Widget 1499',167.33,False
1500,'Widget 1500',3.0,True
1501,'Widget 1501',5.33,False
1502,'Widget 1502',7.67,True
1503,'Widget 1503',10.0,False
1504,'Widget 1504',12.33,True
1505,'Widget 1505',14.67,False
1506,'Widget 1506',17.0,True
1507,'Widget 1507',19.33,False
1508,'Widget 1508',21.67,True
1509,'Widget 1509',24.0,False
1510,'Widget 1510',26.33,True
1511,'Widget 1511',28.67,False
1512,'Widget 1512',31.0,True
1513,'Widget 1513',33.33,False
1514,'Widget 1514',35.67,True
1515,'Widget 1515',38.0,False
1516,'Widget 1516',40.33,True
1517,'Widget 1517',42.67,False
1518,'Widget 1518',45.0,True
1519,'Widget 1519',47.33,False
1520,'Widget 1520',49.67,True
1521,'Widget 1521',52.0,False
1522,'Widget 1522',54.33,True
1523,'Widget 1523',56.67,False
1524,'Widget 1524',59.0,True
1525,'Widget 1525',61.33,False
1526,'Widget 1526',63.67,True
1527,'Widget 1527',66.0,False
1528,'Widget 1528',68.33,True
1529,'Widget 1529',70.67,False
1530,'Widget 1530',73.0,True
1531,'Widget 1531',75.33,False
1532,'Widget 1532',77.67,True
1533,'Widget 1533',80.0,False
1534,'Widget 1534',82.33,True
1535,'Widget 1535',84.67,False
1536,'Widget 1536',87.0,True
1537,'Widget 1537',89.33,False
1538,'Widget 1538',91.67,True
1539,'Widget 1539',94.0,False
1540,'Widget 1540',96.33,True
1541,'Widget 1541',98.67,False
1542,'Widget 1542',101.0,True
1543,'Widget 1543',103.33,False
1544,'Widget 1544',105.67,True
1545,'Widget 1545',108.0,False
1546,'Widget 1546',110.33,True
1547,'Widget 1547',112.67,False
1548,'Widget 1548',115.0,True
1549,'Widget 1549',117.33,False
1550,'Widget 1550',119.67,True
1551,'Widget 1551',122.0,False
1552,'Widget 1552',124.33,True
1553,'Widget 1553',126.67,False
1554,'Widget 1554',129.0,True
1555,'Widget 1555',131.33,False
1556,'Widget 1556',133.67,True
1557,'Widget 1557',136.0,False
1558,'Widget 1558',138.33,True
1559,'Widget 1559',140.67,False
1560,'Widget 1560',143.0,True
1561,'Widget 1561',145.33,False
1562,'Widget 1562',147.67,True
1563,'Widget 1563',150.0,False
1564,'Widget 1564',152.33,True
1565,'Widget 1565',154.67,False
1566,'Widget 1566',157.0,True
1567,'Widget 1567',159.33,False
1568,'Widget 1568',161.67,True
1569,'Widget 1569',164.0,False
1570,'Widget 1570',166.33,True
1571,'Widget 1571',168.67,False
1572,'Widget 1572',4.33,True
1573,'Widget 1573',6.67,False
1574,'Widget 1574',9.0,True
1575,'Widget 1575',11.33,False
1576,'Widget 1576',13.67,True
1577,'Widget 1577',16.0,False
1578,'Widget 1578',18.33,True
1579,'Widget 1579',20.67,False
1580,'Widget 1580',23.0,True
1581,'Widget 1581',25.33,False
1582,'Widget 1582',27.67,True
1583,'Widget 1583',30.0,False
1584,'Widget 1584',32.33,True
1585,'Widget 1585',34.67,False
1586,'Widget 1586',37.0,True
1587,'Widget 1587',39.33,False
1588,'Widget 1588',41.67,True
1589,'Widget 1589',44.0,False
1590,'Widget 1590',46.33,True
1591,'Widget 1591',48.67,False
1592,'Widget 1592',51.0,True
1593,'Widget 1593',53.33,False
1594,'Widget 1594',55.67,True
1595,'Widget 1595',58.0,False
1596,'Widget 1596',60.33,True
1597,'Widget 1597',62.67,False
1598,'Widget 1598',65.0,True
1599,'Widget 1599',67.33,False
1600,'Widget 1600',69.67,True
1601,'Widget 1601',72.0,False
1602,'Widget 1602',74.33,True
1603,'Widget 1603',76.67,False
1604,'Widget 1604',79.0,True
1605,'Widget 1605',81.33,False
1606,'Widget 1606',83.67,True
1607,'Widget 1607',86.0,False
1608,'Widget 1608',88.33,True
1609,'Widget 1609',90.67,False
1610,'Widget 1610',93.0,True
1611,'Widget 1611',95.33,False
1612,'Widget 1612',97.67,True
1613,'Widget 1613',100.0,False
1614,'Widget 1614',102.33,True
1615,'Widget 1615',104.67,False
1616,'Widget 1616',107.0,True
1617,'Widget 1617',109.33,False
1618,'Widget 1618',111.67,True
1619,'Widget 1619',114.0,False
1620,'Widget 1620',116.33,True
1621,'Widget 1621',118.67,False
1622,'Widget 1622',121.0,True
1623,'Widget 1623',123.33,False
1624,'Widget 1624',125.67,True
1625,'Widget 1625',128.0,False
1626,'Widget 1626',130.33,True
1627,'Widget 1627',132.67,False
1628,'Widget 1628',135.0,True
1629,'Widget 1629',137.33,False
1630,'Widget 1630',139.67,True
1631,'Widget 1631',142.0,False
1632,'Widget 1632',144.33,True
1633,'Widget 1633',146.67,False
1634,'Widget 1634',149.0,True
1635,'Widget 1635',151.33,False
1636,'Widget 1636',153.67,True
1637,'Widget 1637',156.0,False
1638,'Widget 1638',158.33,True
1639,'Widget 1639',160.67,False
1640,'Widget 1640',163.0,True
1641,'Widget 1641',165.33,False
1642,'Widget 1642',167.67,True
1643,'Widget 1643',3.33,False
1644,'Widget 1644',5.67,True
1645,'Widget 1645',8.0,False
1646,'Widget 1646',10.33,True
1647,'Widget 1647',12.67,False
1648,'Widget 1648',15.0,True
1649,'Widget 1649',17.33,False
1650,'Widget 1650',19.67,True
1651,'Widget 1651',22.0,False
1652,'Widget 1652',24.33,True
1653,'Widget 1653',26.67,False
1654,'Widget 1654',29.0,True
1655,'Widget 1655',31.33,False
1656,'Widget 1656',33.67,True
1657,'Widget 1657',36.0,False
1658,'Widget 1658',38.33,True
1659,'Widget 1659',40.67,False
1660,'Widget 1660',43.0,True
1661,'Widget 1661',45.33,False
1662,'Widget 1662',47.67,True
1663,'Widget 1663',50.0,False
1664,'Widget 1664',52.33,True
1665,'Widget 1665',54.67,False
1666,'Widget 1666',57.0,True
1667,'Widget 1667',59.33,False
1668,'Widget 1668',61.67,True
1669,'Widget 1669',64.0,False
1670,'Widget 1670',66.33,True
1671,'Widget 1671',68.67,False
1672,'Widget 1672',71.0,True
1673,'Widget 1673',73.33,False
1674,'Widget 1674',75.67,True
1675,'Widget 1675',78.0,False
1676,'Widget 1676',80.33,True
1677,'Widget 1677',82.67,False
1678,'Widget 1678',85.0,True
1679,'Widget 1679',87.33,False
1680,'Widget 1680',89.67,True
1681,'Widget 1681',92.0,False
1682,'Widget 1682',94.33,True
1683,'Widget 1683',96.67,False
1684,'Widget 1684',99.0,True
1685,'Widget 1685',101.33,False
1686,'Widget 1686',103.67,True
1687,'Widget 1687',106.0,False
1688,'Widget 1688',108.33,True
1689,'Widget 1689',110.67,False
1690,'Widget 1690',113.0,True
1691,'Widget 1691',115.33,False
1692,'Widget 1692',117.67,True
1693,'Widget 1693',120.0,False
1694,'Widget 1694',122.33,True
1695,'Widget 1695',124.67,False
1696,'Widget 1696',127.0,True
1697,'Widget 1697',129.33,False
1698,'Widget 1698',131.67,True
1699,'Widget 1699',134.0,False
1700,'Widget 1700',136.33,True
1701,'Widget 1701',138.67,False
1702,'Widget 1702',141.0,True
1703,'Widget 1703',143.33,False
1704,'Widget 1704',145.67,True
1705,'Widget 1705',148.0,False
1706,'Widget 1706',150.33,True
1707,'Widget 1707',152.67,False
1708,'Widget 1708',155.0,True
1709,'Widget 1709',157.33,False
1710,'Widget 1710',159.67,True
1711,'Widget 1711',162.0,False
1712,'Widget 1712',164.33,True
1713,'Widget 1713',166.67,False
1714,'Widget 1714',169.0,True
1715,'Widget 1715',4.67,False
1716,'Widget 1716',7.0,True
1717,'Widget 1717',9.33,False
1718,'Widget 1718',11.67,True
1719,'Widget 1719',14.0,False
1720,'Widget 1720',16.33,True
1721,'Widget 1721',18.67,False
1722,'Widget 1722',21.0,True
1723,'Widget 1723',23.33,False
1724,'Widget 1724',25.67,True
1725,'Widget 1725',28.0,False
1726,'Widget 1726',30.33,True
1727,'Widget 1727',32.67,False
1728,'Widget 1728',35.0,True
1729,'Widget 1729',37.33,False
1730,'Widget 1730',39.67,True
1731,'Widget 1731',42.0,False
1732,'Widget 1732',44.33,True
1733,'Widget 1733',46.67,False
1734,'Widget 1734',49.0,True
1735,'Widget 1735',51.33,False
1736,'Widget 1736',53.67,True
1737,'Widget 1737',56.0,False
1738,'Widget 1738',58.33,True
1739,'Widget 1739',60.67,False
1740,'Widget 1740',63.0,True
1741,'Widget 1741',65.33,False
1742,'Widget 1742',67.67,True
1743,'Widget 1743',70.0,False
1744,'Widget 1744',72.33,True
1745,'Widget 1745',74.67,False
1746,'Widget 1746',77.0,True
1747,'Widget 1747',79.33,False
1748,'Widget 1748',81.67,True
1749,'Widget 1749',84.0,False
1750,'Widget 1750',86.33,True
1751,'Widget 1751',88.67,False
1752,'Widget 1752',91.0,True
1753,'Widget 1753',93.33,False
1754,'Widget 1754',95.67,True
1755,'Widget 1755',98.0,False
1756,'Widget 1756',100.33,True
1757,'Widget 1757',102.67,False
1758,'Widget 1758',105.0,True
1759,'Widget 1759',107.33,False
1760,'Widget 1760',109.67,True
1761,'Widget 1761',112.0,False
1762,'Widget 1762',114.33,True
1763,'Widget 1763',116.67,False
1764,'Widget 1764',119.0,True
1765,'Widget 1765',121.33,False
1766,'Widget 1766',123.67,True
1767,'Widget 1767',126.0,False
1768,'Widget 1768',128.33,True
1769,'Widget 1769',130.67,False
1770,'Widget 1770',133.0,True
1771,'Widget 1771',135.33,False
1772,'Widget 1772',137.67,True
1773,'Widget 1773',140.0,False
1774,'Widget 1774',142.33,True
1775,'Widget 1775',144.67,False
1776,'Widget 1776',147.0,True
1777,'Widget 1777',149.33,False
1778,'Widget 1778',151.67,True
1779,'Widget 1779',154.0,False
1780,'Widget 1780',156.33,True
1781,'Widget 1781',158.67,False
1782,'Widget 1782',161.0,True
1783,'Widget 1783',163.33,False
1784,'Widget 1784',165.67,True
1785,'Widget 1785',168.0,False
1786,'Widget 1786',3.67,True
1787,'Widget 1787',6.0,False
1788,'Widget 1788',8.33,True
1789,'Widget 1789',10.67,False
1790,'Widget 1790',13.0,True
1791,'Widget 1791',15.33,False
1792,'Widget 1792',17.67,True
1793,'Widget 1793',20.0,False
1794,'Widget 1794',22.33,True
1795,'Widget 1795',24.67,False
1796,'Widget 1796',27.0,True
1797,'Widget 1797',29.33,False
1798,'Widget 1798',31.67,True
1799,'Widget 1799',34.0,False
1800,'Widget 1800',36.33,True
1801,'Widget 1801',38.67,False
1802,'Widget 1802',41.0,True
1803,'Widget 1803',43.33,False
1804,'Widget 1804',45.67,True
1805,'Widget 1805',48.0,False
1806,'Widget 1806',50.33,True
1807,'Widget 1807',52.67,False
1808,'Widget 1808',55.0,True
1809,'Widget 1809',57.33,False
1810,'Widget 1810',59.67,True
1811,'Widget 1811',62.0,False
1812,'Widget 1812',64.33,True
1813,'Widget 1813',66.67,False
1814,'Widget 1814',69.0,True
1815,'Widget 1815',71.33,False
1816,'Widget 1816',73.67,True
1817,'Widget 1817',76.0,False
1818,'Widget 1818',78.33,True
1819,'Widget 1819',80.67,False
1820,'Widget 1820',83.0,True
1821,'Widget 1821',85.33,False
1822,'Widget 1822',87.67,True
1823,'Widget 1823',90.0,False
1824,'Widget 1824',92.33,True
1825,'Widget 1825',94.67,False
1826,'Widget 1826',97.0,True
1827,'Widget 1827',99.33,False
1828,'Widget 1828',101.67,True
1829,'Widget 1829',104.0,False
1830,'Widget 1830',106.33,True
1831,'Widget 1831',108.67,False
1832,'Widget 1832',111.0,True
1833,'Widget 1833',113.33,False
1834,'Widget 1834',115.67,True
1835,'Widget 1835',118.0,False
1836,'Widget 1836',120.33,True
1837,'Widget 1837',122.67,False
1838,'Widget 1838',125.0,True
1839,'Widget 1839',127.33,False
1840,'Widget 1840',129.67,True
1841,'Widget 1841',132.0,False
1842,'Widget 1842',134.33,True
1843,'Widget 1843',136.67,False
1844,'Widget 1844',139.0,True
1845,'Widget 1845',141.33,False
1846,'Widget 1846',143.67,True
1847,'Widget 1847',146.0,False
1848,'Widget 1848',148.33,True
1849,'Widget 1849',150.67,False
1850,'Widget 1850',153.0,True
1851,'Widget 1851',155.33,False
1852,'Widget 1852',157.67,True
1853,'Widget 1853',160.0,False
1854,'Widget 1854',162.33,True
1855,'Widget 1855',164.67,False
1856,'Widget 1856',167.0,True
1857,'Widget 1857',169.33,False
1858,'Widget 1858',5.0,True
1859,'Widget 1859',7.33,False
1860,'Widget 1860',9.67,True
1861,'Widget 1861',12.0,False
1862,'Widget 1862',14.33,True
1863,'Widget 1863',16.67,False
1864,'Widget 1864',19.0,True
1865,'Widget 1865',21.33,False
1866,'Widget 1866',23.67,True
1867,'Widget 1867',26.0,False
1868,'Widget 1868',28.33,True
1869,'Widget 1869',30.67,False
1870,'Widget 1870',33.0,True
1871,'Widget 1871',35.33,False
1872,'Widget 1872',37.67,True
1873,'Widget 1873',40.0,False
1874,'Widget 1874',42.33,True
1875,'Widget 1875',44.67,False
1876,'Widget 1876',47.0,True
1877,'Widget 1877',49.33,False
1878,'Widget 1878',51.67,True
1879,'Widget 1879',54.0,False
1880,'Widget 1880',56.33,True
1881,'Widget 1881',58.67,False
1882,'Widget 1882',61.0,True
1883,'Widget 1883',63.33,False
1884,'Widget 1884',65.67,True
1885,'Widget 1885',68.0,False
1886,'Widget 1886',70.33,True
1887,'Widget 1887',72.67,False
1888,'Widget 1888',75.0,True
1889,'Widget 1889',77.33,False
1890,'Widget 1890',79.67,True
1891,'Widget 1891',82.0,False
1892,'Widget 1892',84.33,True
1893,'Widget 1893',86.67,False
1894,'Widget 1894',89.0,True
1895,'Widget 1895',91.33,False
1896,'Widget 1896',93.67,True
1897,'Widget 1897',96.0,False
1898,'Widget 1898',98.33,True
1899,'Widget 1899',100.67,False
1900,'Widget 1900',103.0,True
1901,'Widget 1901',105.33,False
1902,'Widget 1902',107.67,True
1903,'Widget 1903',110.0,False
1904,'Widget 1904',112.33,True
1905,'Widget 1905',114.67,False
1906,'Widget 1906',117.0,True
1907,'Widget 1907',119.33,False
1908,'Widget 1908',121.67,True
1909,'Widget 1909',124.0,False
1910,'Widget 1910',126.33,True
1911,'Widget 1911',128.67,False
1912,'Widget 1912',131.0,True
1913,'Widget 1913',133.33,False
1914,'Widget 1914',135.67,True
1915,'Widget 1915',138.0,False
1916,'Widget 1916',140.33,True
1917,'Widget 1917',142.67,False
1918,'Widget 1918',145.0,True
1919,'Widget 1919',147.33,False
1920,'Widget 1920',149.67,True
1921,'Widget 1921',152.0,False
1922,'Widget 1922',154.33,True
1923,'Widget 1923',156.67,False
1924,'Widget 1924',159.0,True
1925,'Widget 1925',161.33,False
1926,'Widget 1926',163.67,True
1927,'Widget 1927',166.0,False
1928,'Widget 1928',168.33,True
1929,'Widget 1929',4.0,False
1930,'Widget 1930',6.33,True
1931,'Widget 1931',8.67,False
1932,'Widget 1932',11.0,True
1933,'Widget 1933',13.33,False
1934,'Widget 1934',15.67,True
1935,'Widget 1935',18.0,False
1936,'Widget 1936',20.33,True
1937,'Widget 1937',22.67,False
1938,'Widget 1938',25.0,True
1939,'Widget 1939',27.33,False
1940,'Widget 1940',29.67,True
1941,'Widget 1941',32.0,False
1942,'Widget 1942',34.33,True
1943,'Widget 1943',36.67,False
1944,'Widget 1944',39.0,True
1945,'Widget 1945',41.33,False
1946,'Widget 1946',43.67,True
1947,'Widget 1947',46.0,False
1948,'Widget 1948',48.33,True
1949,'Widget 1949',50.67,False
1950,'Widget 1950',53.0,True
1951,'Widget 1951',55.33,False
1952,'Widget 1952',57.67,True
1953,'Widget 1953',60.0,False
1954,'Widget 1954',62.33,True
1955,'Widget 1955',64.67,False
1956,'Widget 1956',67.0,True
1957,'Widget 1957',69.33,False
1958,'Widget 1958',71.67,True
1959,'Widget 1959',74.0,False
1960,'Widget 1960',76.33,True
1961,'Widget 1961',78.67,False
1962,'Widget 1962',81.0,True
1963,'Widget 1963',83.33,False
1964,'Widget 1964',85.67,True
1965,'Widget 1965',88.0,False
1966,'Widget 1966',90.33,True
1967,'Widget 1967',92.67,False
1968,'Widget 1968',95.0,True
1969,'Widget 1969',97.33,False
1970,'Widget 1970',99.67,True
1971,'Widget 1971',102.0,False
1972,'Widget 1972',104.33,True
1973,'Widget 1973',106.67,False
1974,'Widget 1974',109.0,True
1975,'Widget 1975',111.33,False
1976,'Widget 1976',113.67,True
1977,'Widget 1977',116.0,False
1978,'Widget 1978',118.33,True
1979,'Widget 1979',120.67,False
1980,'Widget 1980',123.0,True
1981,'Widget 1981',125.33,False
1982,'Widget 1982',127.67,True
1983,'Widget 1983',130.0,False
1984,'Widget 1984',132.33,True
1985,'Widget 1985',134.67,False
1986,'Widget 1986',137.0,True
1987,'Widget 1987',139.33,False
1988,'Widget 1988',141.67,True
1989,'Widget 1989',144.0,False
1990,'Widget 1990',146.33,True
1991,'Widget 1991',148.67,False
1992,'Widget 1992',151.0,True
1993,'Widget 1993',153.33,False
1994,'Widget 1994',155.67,True
1995,'Widget 1995',158.0,False
1996,'Widget 1996',160.33,True
1997,'Widget 1997',162.67,False
1998,'Widget 1998',165.0,True
1999,'Widget 1999',167.33,False
2000,'Widget 2000',3.0,True
2001,'Widget 2001',5.33,False
2002,'Widget 2002',7.67,True
2003,'Widget 2003',10.0,False
2004,'Widget 2004',12.33,True
2005,'Widget 2005',14.67,False
2006,'Widget 2006',17.0,True
2007,'Widget 2007',19.33,False
2008,'Widget 2008',21.67,True
2009,'Widget 2009',24.0,False
2010,'Widget 2010',26.33,True
2011,'Widget 2011',28.67,False
2012,'Widget 2012',31.0,True
2013,'Widget 2013',33.33,False
2014,'Widget 2014',35.67,True
2015,'Widget 2015',38.0,False
2016,'Widget 2016',40.33,True
2017,'Widget 2017',42.67,False
2018,'Widget 2018',45.0,True
2019,'Widget 2019',47.33,False
2020,'Widget 2020',49.67,True
2021,'Widget 2021',52.0,False
2022,'Widget 2022',54.33,True
2023,'Widget 2023',56.67,False
2024,'Widget 2024',59.0,True
2025,'Widget 2025',61.33,False
2026,'Widget 2026',63.67,True
2027,'Widget 2027',66.0,False
2028,'Widget 2028',68.33,True
2029,'Widget 2029',70.67,False
2030,'Widget 2030',73.0,True
2031,'Widget 2031',75.33,False
2032,'Widget 2032',77.67,True
2033,'Widget 2033',80.0,False
2034,'Widget 2034',82.33,True
2035,'Widget 2035',84.67,False
2036,'Widget 2036',87.0,True
2037,'Widget 2037',89.33,False
2038,'Widget 2038',91.67,True
2039,'Widget 2039',94.0,False
2040,'Widget 2040',96.33,True
2041,'Widget 2041',98.67,False
2042,'Widget 2042',101.0,True
2043,'Widget 2043',103.33,False
2044,'Widget 2044',105.67,True
2045,'Widget 2045',108.0,False
2046,'Widget 2046',110.33,True
2047,'Widget 2047',112.67,False
2048,'Widget 2048',115.0,True
2049,'Widget 2049',117.33,False
2050,'Widget 2050',119.67,True
2051,'Widget 2051',122.0,False
2052,'Widget 2052',124.33,True
2053,'Widget 2053',126.67,False
2054,'Widget 2054',129.0,True
2055,'Widget 2055',131.33,False
2056,'Widget 2056',133.67,True
2057,'Widget 2057',136.0,False
2058,'Widget 2058',138.33,True
2059,'Widget 2059',140.67,False
2060,'Widget 2060',143.0,True
2061,'Widget 2061',145.33,False
2062,'Widget 2062',147.67,True
2063,'Widget 2063',150.0,False
2064,'Widget 2064',152.33,True
2065,'Widget 2065',154.67,False
2066,'Widget 2066',157.0,True
2067,'Widget 2067',159.33,False
2068,'Widget 2068',161.67,True
2069,'Widget 2069',164.0,False
2070,'Widget 2070',166.33,True
2071,'Widget 2071',168.67,False
2072,'Widget 2072',4.33,True
2073,'Widget 2073',6.67,False
2074,'Widget 2074',9.0,True
2075,'Widget 2075',11.33,False
2076,'Widget 2076',13.67,True
2077,'Widget 2077',16.0,False
2078,'Widget 2078',18.33,True
2079,'Widget 2079',20.67,False
2080,'Widget 2080',23.0,True
2081,'Widget 2081',25.33,False
2082,'Widget 2082',27.67,True
2083,'Widget 2083',30.0,False
2084,'Widget 2084',32.33,True
2085,'Widget 2085',34.67,False
2086,'Widget 2086',37.0,True
2087,'Widget 2087',39.33,False
2088,'Widget 2088',41.67,True
2089,'Widget 2089',44.0,False
2090,'Widget 2090',46.33,True
2091,'Widget 2091',48.67,False
2092,'Widget 2092',51.0,True
2093,'Widget 2093',53.33,False
2094,'Widget 2094',55.67,True
2095,'Widget 2095',58.0,False
2096,'Widget 2096',60.33,True
2097,'Widget 2097',62.67,False
2098,'Widget 2098',65.0,True
2099,'Widget 2099',67.33,False
2100,'Widget 2100',69.67,True
2101,'Widget 2101',72.0,False
2102,'Widget 2102',74.33,True
2103,'Widget 2103',76.67,False
2104,'Widget 2104',79.0,True
2105,'Widget 2105',81.33,False
2106,'Widget 2106',83.67,True
2107,'Widget 2107',86.0,False
2108,'Widget 2108',88.33,True
2109,'Widget 2109',90.67,False
2110,'Widget 2110',93.0,True
2111,'Widget 2111',95.33,False
2112,'Widget 2112',97.67,True
2113,'Widget 2113',100.0,False
2114,'Widget 2114',102.33,True
2115,'Widget 2115',104.67,False
2116,'Widget 2116',107.0,True
2117,'Widget 2117',109.33,False
2118,'Widget 2118',111.67,True
2119,'Widget 2119',114.0,False
2120,'Widget 2120',116.33,True
2121,'Widget 2121',118.67,False
2122,'Widget 2122',121.0,True
2123,'Widget 2123',123.33,False
2124,'Widget 2124',125.67,True
2125,'Widget 2125',128.0,False
2126,'Widget 2126',130.33,True
2127,'Widget 2127',132.67,False
2128,'Widget 2128',135.0,True
2129,'Widget 2129',137.33,False
2130,'Widget 2130',139.67,True
2131,'Widget 2131',142.0,False
2132,'Widget 2132',144.33,True
2133,'Widget 2133',146.67,False
2134,'Widget 2134',149.0,True
2135,'Widget 2135',151.33,False
2136,'Widget 2136',153.67,True
2137,'Widget 2137',156.0,False
2138,'Widget 2138',158.33,True
2139,'Widget 2139',160.67,False
2140,'Widget 2140',163.0,True
2141,'Widget 2141',165.33,False
2142,'Widget 2142',167.67,True
2143,'Widget 2143',3.33,False
2144,'Widget 2144',5.67,True
2145,'Widget 2145',8.0,False
2146,'Widget 2146',10.33,True
2147,'Widget 2147',12.67,False
2148,'Widget 2148',15.0,True
2149,'Widget 2149',17.33,False
2150,'Widget 2150',19.67,True
2151,'Widget 2151',22.0,False
2152,'Widget 2152',24.33,True
2153,'Widget 2153',26.67,False
2154,'Widget 2154',29.0,True
2155,'Widget 2155',31.33,False
2156,'Widget 2156',33.67,True
2157,'Widget 2157',36.0,False
2158,'Widget 2158',38.33,True
2159,'Widget 2159',40.67,False
2160,'Widget 2160',43.0,True
2161,'Widget 2161',45.33,False
2162,'Widget 2162',47.67,True
2163,'Widget 2163',50.0,False
2164,'Widget 2164',52.33,True
2165,'Widget 2165',54.67,False
2166,'Widget 2166',57.0,True
2167,'Widget 2167',59.33,False
2168,'Widget 2168',61.67,True
2169,'Widget 2169',64.0,False
2170,'Widget 2170',66.33,True
2171,'Widget 2171',68.67,False
2172,'Widget 2172',71.0,True
2173,'Widget 2173',73.33,False
2174,'Widget 2174',75.67,True
2175,'Widget 2175',78.0,False
2176,'Widget 2176',80.33,True
2177,'Widget 2177',82.67,False
2178,'Widget 2178',85.0,True
2179,'Widget 2179',87.33,False
2180,'Widget 2180',89.67,True
2181,'Widget 2181',92.0,False
2182,'Widget 2182',94.33,True
2183,'Widget 2183',96.67,False
2184,'Widget 2184',99.0,True
2185,'Widget 2185',101.33,False
2186,'Widget 2186',103.67,True
2187,'Widget 2187',106.0,False
2188,'Widget 2188',108.33,True
2189,'Widget 2189',110.67,False
2190,'Widget 2190',113.0,True
2191,'Widget 2191',115.33,False
2192,'Widget 2192',117.67,True
2193,'Widget 2193',120.0,False
2194,'Widget 2194',122.33,True
2195,'Widget 2195',124.67,False
2196,'Widget 2196',127.0,True
2197,'Widget 2197',129.33,False
2198,'Widget 2198',131.67,True
2199,'Widget 2199',134.0,False
2200,'Widget 2200',136.33,True
2201,'Widget 2201',138.67,False
2202,'Widget 2202',141.0,True
2203,'Widget 2203',143.33,False
2204,'Widget 2204',145.67,True
2205,'Widget 2205',148.0,False
2206,'Widget 2206',150.33,True
2207,'Widget 2207',152.67,False
2208,'Widget 2208',155.0,True
2209,'Widget 2209',157.33,False
2210,'Widget 2210',159.67,True
2211,'Widget 2211',162.0,False
2212,'Widget 2212',164.33,True
2213,'Widget 2213',166.67,False
2214,'Widget 2214',169.0,True
2215,'Widget 2215',4.67,False
2216,'Widget 2216',7.0,True
2217,'Widget 2217',9.33,False
2218,'Widget 2218',11.67,True
2219,'Widget 2219',14.0,False
2220,'Widget 2220',16.33,True
2221,'Widget 2221',18.67,False
2222,'Widget 2222',21.0,True
2223,'Widget 2223',23.33,False
2224,'Widget 2224',25.67,True
2225,'Widget 2225',28.0,False
2226,'Widget 2226',30.33,True
2227,'Widget 2227',32.67,False
2228,'Widget 2228',35.0,True
2229,'Widget 2229',37.33,False
2230,'Widget 2230',39.67,True
2231,'Widget 2231',42.0,False
2232,'Widget 2232',44.33,True
2233,'Widget 2233',46.67,False
2234,'Widget 2234',49.0,True
2235,'Widget 2235',51.33,False
2236,'Widget 2236',53.67,True
2237,'Widget 2237',56.0,False
2238,'Widget 2238',58.33,True
2239,'Widget 2239',60.67,False
2240,'Widget 2240',63.0,True
2241,'Widget 2241',65.33,False
2242,'Widget 2242',67.67,True
2243,'Widget 2243',70.0,False
2244,'Widget 2244',72.33,True
2245,'Widget 2245',74.67,False
2246,'Widget 2246',77.0,True
2247,'Widget 2247',79.33,False
2248,'Widget 2248',81.67,True
2249,'Widget 2249',84.0,False
2250,'Widget 2250',86.33,True
2251,'Widget 2251',88.67,False
2252,'Widget 2252',91.0,True
2253,'Widget 2253',93.33,False
2254,'Widget 2254',95.67,True
2255,'Widget 2255',98.0,False
2256,'Widget 2256',100.33,True
2257,'Widget 2257',102.67,False
2258,'Widget 2258',105.0,True
2259,'Widget 2259',107.33,False
2260,'Widget 2260',109.67,True
2261,'Widget 2261',112.0,False
2262,'Widget 2262',114.33,True
2263,'Widget 2263',116.67,False
2264,'Widget 2264',119.0,True
2265,'Widget 2265',121.33,False
2266,'Widget 2266',123.67,True
2267,'Widget 2267',126.0,False
2268,'Widget 2268',128.33,True
2269,'Widget 2269',130.67,False
2270,'Widget 2270',133.0,True
2271,'Widget 2271',135.33,False
2272,'Widget 2272',137.67,True
2273,'Widget 2273',140.0,False
2274,'Widget 2274',142.33,True
2275,'Widget 2275',144.67,False
2276,'Widget 2276',147.0,True
2277,'Widget 2277',149.33,False
2278,'Widget 2278',151.67,True
2279,'Widget 2279',154.0,False
2280,'Widget 2280',156.33,True
2281,'Widget 2281',158.67,False
2282,'Widget 2282',161.0,True
2283,'Widget 2283',163.33,False
2284,'Widget 2284',165.67,True
2285,'Widget 2285',168.0,False
2286,'Widget 2286',3.67,True
2287,'Widget 2287',6.0,False
2288,'Widget 2288',8.33,True
2289,'Widget 2289',10.67,False
2290,'Widget 2290',13.0,True
2291,'Widget 2291',15.33,False
2292,'Widget 2292',17.67,True
2293,'Widget 2293',20.0,False
2294,'Widget 2294',22.33,True
2295,'Widget 2295',24.67,False
2296,'Widget 2296',27.0,True
2297,'Widget 2297',29.33,False
2298,'Widget 2298',31.67,True
2299,'Widget 2299',34.0,False
2300,'Widget 2300',36.33,True
2301,'Widget 2301',38.67,False
2302,'Widget 2302',41.0,True
2303,'Widget 2303',43.33,False
2304,'Widget 2304',45.67,True
2305,'Widget 2305',48.0,False
2306,'Widget 2306',50.33,True
2307,'Widget 2307',52.67,False
2308,'Widget 2308',55.0,True
2309,'Widget 2309',57.33,False
2310,'Widget 2310',59.67,True
2311,'Widget 2311',62.0,False
2312,'Widget 2312',64.33,True
2313,'Widget 2313',66.67,False
2314,'Widget 2314',69.0,True
2315,'Widget 2315',71.33,False
2316,'Widget 2316',73.67,True
2317,'Widget 2317',76.0,False
2318,'Widget 2318',78.33,True
2319,'Widget 2319',80.67,False
2320,'Widget 2320',83.0,True
2321,'Widget 2321',85.33,False
2322,'Widget 2322',87.67,True
2323,'Widget 2323',90.0,False
2324,'Widget 2324',92.33,True
2325,'Widget 2325',94.67,False
2326,'Widget 2326',97.0,True
2327,'Widget 2327',99.33,False
2328,'Widget 2328',101.67,True
2329,'Widget 2329',104.0,False
2330,'Widget 2330',106.33,True
2331,'Widget 2331',108.67,False
2332,'Widget 2332',111.0,True
2333,'Widget 2333',113.33,False
2334,'Widget 2334',115.67,True
2335,'Widget 2335',118.0,False
2336,'Widget 2336',120.33,True
2337,'Widget 2337',122.67,False
2338,'Widget 2338',125.0,True
2339,'Widget 2339',127.33,False
2340,'Widget 2340',129.67,True
2341,'Widget 2341',132.0,False
2342,'Widget 2342',134.33,True
2343,'Widget 2343',136.67,False
2344,'Widget 2344',139.0,True
2345,'Widget 2345',141.33,False
2346,'Widget 2346',143.67,True
2347,'Widget 2347',146.0,False
2348,'Widget 2348',148.33,True
2349,'Widget 2349',150.67,False
2350,'Widget 2350',153.0,True
2351,'Widget 2351',155.33,False
2352,'Widget 2352',157.67,True
2353,'Widget 2353',160.0,False
2354,'Widget 2354',162.33,True
2355,'Widget 2355',164.67,False
2356,'Widget 2356',167.0,True
2357,'Widget 2357',169.33,False
2358,'Widget 2358',5.0,True
2359,'Widget 2359',7.33,False
2360,'Widget 2360',9.67,True
2361,'Widget 2361',12.0,False
2362,'Widget 2362',14.33,True
2363,'Widget 2363',16.67,False
2364,'Widget 2364',19.0,True
2365,'Widget 2365',21.33,False
2366,'Widget 2366',23.67,True
2367,'Widget 2367',26.0,False
2368,'Widget 2368',28.33,True
2369,'Widget 2369',30.67,False
2370,'Widget 2370',33.0,True
2371,'Widget 2371',35.33,False
2372,'Widget 2372',37.67,True
2373,'Widget 2373',40.0,False
2374,'Widget 2374',42.33,True
2375,'Widget 2375',44.67,False
2376,'Widget 2376',47.0,True
2377,'Widget 2377',49.33,False
2378,'Widget 2378',51.67,True
2379,'Widget 2379',54.0,False
2380,'Widget 2380',56.33,True
2381,'Widget 2381',58.67,False
2382,'Widget 2382',61.0,True
2383,'Widget 2383',63.33,False
2384,'Widget 2384',65.67,True
2385,'Widget 2385',68.0,False
2386,'Widget 2386',70.33,True
2387,'Widget 2387',72.67,False
2388,'Widget 2388',75.0,True
2389,'Widget 2389',77.33,False
2390,'Widget 2390',79.67,True
2391,'Widget 2391',82.0,False
2392,'Widget 2392',84.33,True
2393,'Widget 2393',86.67,False
2394,'Widget 2394',89.0,True
2395,'Widget 2395',91.33,False
2396,'Widget 2396',93.67,True
2397,'Widget 2397',96.0,False
2398,'Widget 2398',98.33,True
2399,'Widget 2399',100.67,False
2400,'Widget 2400',103.0,True
2401,'Widget 2401',105.33,False
2402,'Widget 2402',107.67,True
2403,'Widget 2403',110.0,False
2404,'Widget 2404',112.33,True
2405,'Widget 2405',114.67,False
2406,'Widget 2406',117.0,True
2407,'Widget 2407',119.33,False
2408,'Widget 2408',121.67,True
2409,'Widget 2409',124.0,False
2410,'Widget 2410',126.33,True
2411,'Widget 2411',128.67,False
2412,'Widget 2412',131.0,True
2413,'Widget 2413',133.33,False
2414,'Widget 2414',135.67,True
2415,'Widget 2415',138.0,False
2416,'Widget 2416',140.33,True
2417,'Widget 2417',142.67,False
2418,'Widget 2418',145.0,True
2419,'Widget 2419',147.33,False
2420,'Widget 2420',149.67,True
2421,'Widget 2421',152.0,False
2422,'Widget 2422',154.33,True
2423,'Widget 2423',156.67,False
2424,'Widget 2424',159.0,True
2425,'Widget 2425',161.33,False
2426,'Widget 2426',163.67,True
2427,'Widget 2427',166.0,False
2428,'Widget 2428',168.33,True
2429,'Widget 2429',4.0,False
2430,'Widget 2430',6.33,True
2431,'Widget 2431',8.67,False
2432,'Widget 2432',11.0,True
2433,'Widget 2433',13.33,False
2434,'Widget 2434',15.67,True
2435,'Widget 2435',18.0,False
2436,'Widget 2436',20.33,True
2437,'Widget 2437',22.67,False
2438,'Widget 2438',25.0,True
2439,'Widget 2439',27.33,False
2440,'Widget 2440',29.67,True
2441,'Widget 2441',32.0,False
2442,'Widget 2442',34.33,True
2443,'Widget 2443',36.67,False
2444,'Widget 2444',39.0,True
2445,'Widget 2445',41.33,False
2446,'Widget 2446',43.67,True
2447,'Widget 2447',46.0,False
2448,'Widget 2448',48.33,True
2449,'Widget 2449',50.67,False
2450,'Widget 2450',53.0,True
2451,'Widget 2451',55.33,False
2452,'Widget 2452',57.67,True
2453,'Widget 2453',60.0,False
2454,'Widget 2454',62.33,True
2455,'Widget 2455',64.67,False
2456,'Widget 2456',67.0,True
2457,'Widget 2457',69.33,False
2458,'Widget 2458',71.67,True
2459,'Widget 2459',74.0,False
2460,'Widget 2460',76.33,True
2461,'Widget 2461',78.67,False
2462,'Widget 2462',81.0,True
2463,'Widget 2463',83.33,False
2464,'Widget 2464',85.67,True
2465,'Widget 2465',88.0,False
2466,'Widget 2466',90.33,True
2467,'Widget 2467',92.67,False
2468,'Widget 2468',95.0,True
2469,'Widget 2469',97.33,False
2470,'Widget 2470',99.67,True
2471,'Widget 2471',102.0,False
2472,'Widget 2472',104.33,True
2473,'Widget 2473',106.67,False
2474,'Widget 2474',109.0,True
2475,'Widget 2475',111.33,False
2476,'Widget 2476',113.67,True
2477,'Widget 2477',116.0,False
2478,'Widget 2478',118.33,True
2479,'Widget 2479',120.67,False
2480,'Widget 2480',123.0,True
2481,'Widget 2481',125.33,False
2482,'Widget 2482',127.67,True
2483,'Widget 2483',130.0,False
2484,'Widget 2484',132.33,True
2485,'Widget 2485',134.67,False
2486,'Widget 2486',137.0,True
2487,'Widget 2487',139.33,False
2488,'Widget 2488',141.67,True
2489,'Widget 2489',144.0,False
2490,'Widget 2490',146.33,True
2491,'Widget 2491',148.67,False
2492,'Widget 2492',151.0,True
2493,'Widget 2493',153.33,False
2494,'Widget 2494',155.67,True
2495,'Widget 2495',158.0,False
2496,'Widget 2496',160.33,True
2497,'Widget 2497',162.67,False
2498,'Widget 2498',165.0,True
2499,'Widget 2499',167.33,False
2500,'Widget 2500',3.0,True
2501,'Widget 2501',5.33,False
2502,'Widget 2502',7.67,True
2503,'Widget 2503',10.0,False
2504,'Widget 2504',12.33,True
2505,'Widget 2505',14.67,False
2506,'Widget 2506',17.0,True
2507,'Widget 2507',19.33,False
2508,'Widget 2508',21.67,True
2509,'Widget 2509',24.0,False
2510,'Widget 2510',26.33,True
2511,'Widget 2511',28.67,False
2512,'Widget 2512',31.0,True
2513,'Widget 2513',33.33,False
2514,'Widget 2514',35.67,True
2515,'Widget 2515',38.0,False
2516,'Widget 2516',40.33,True
2517,'Widget 2517',42.67,False
2518,'Widget 2518',45.0,True
2519,'Widget 2519',47.33,False
2520,'Widget 2520',49.67,True
2521,'Widget 2521',52.0,False
2522,'Widget 2522',54.33,True
2523,'Widget 2523',56.67,False
2524,'Widget 2524',59.0,True
2525,'Widget 2525',61.33,False
2526,'Widget 2526',63.67,True
2527,'Widget 2527',66.0,False
2528,'Widget 2528',68.33,True
2529,'Widget 2529',70.67,False
2530,'Widget 2530',73.0,True
2531,'Widget 2531',75.33,False
2532,'Widget 2532',77.67,True
2533,'Widget 2533',80.0,False
2534,'Widget 2534',82.33,True
2535,'Widget 2535',84.67,False
2536,'Widget 2536',87.0,True
2537,'Widget 2537',89.33,False
2538,'Widget 2538',91.67,True
2539,'Widget 2539',94.0,False
2540,'Widget 2540',96.33,True
2541,'Widget 2541',98.67,False
2542,'Widget 2542',101.0,True
2543,'Widget 2543',103.33,False
2544,'Widget 2544',105.67,True
2545,'Widget 2545',108.0,False
2546,'Widget 2546',110.33,True
2547,'Widget 2547',112.67,False
2548,'Widget 2548',115.0,True
2549,'Widget 2549',117.33,False
2550,'Widget 2550',119.67,True
2551,'Widget 2551',122.0,False
2552,'Widget 2552',124.33,True
2553,'Widget 2553',126.67,False
2554,'Widget 2554',129.0,True
2555,'Widget 2555',131.33,False
2556,'Widget 2556',133.67,True
2557,'Widget 2557',136.0,False
2558,'Widget 2558',138.33,True
2559,'Widget 2559',140.67,False
2560,'Widget 2560',143.0,True
2561,'Widget 2561',145.33,False
2562,'Widget 2562',147.67,True
2563,'Widget 2563',150.0,False
2564,'Widget 2564',152.33,True
2565,'Widget 2565',154.67,False
2566,'Widget 2566',157.0,True
2567,'Widget 2567',159.33,False
2568,'Widget 2568',161.67,True
2569,'Widget 2569',164.0,False
2570,'Widget 2570',166.33,True
2571,'Widget 2571',168.67,False
2572,'Widget 2572',4.33,True
2573,'Widget 2573',6.67,False
2574,'Widget 2574',9.0,True
2575,'Widget 2575',11.33,False
2576,'Widget 2576',13.67,True
2577,'Widget 2577',16.0,False
2578,'Widget 2578',18.33,True
2579,'Widget 2579',20.67,False
2580,'Widget 2580',23.0,True
2581,'Widget 2581',25.33,False
2582,'Widget 2582',27.67,True
2583,'Widget 2583',30.0,False
2584,'Widget 2584',32.33,True
2585,'Widget 2585',34.67,False
2586,'Widget 2586',37.0,True
2587,'Widget 2587',39.33,False
2588,'Widget 2588',41.67,True
2589,'Widget 2589',44.0,False
2590,'Widget 2590',46.33,True
2591,'Widget 2591',48.67,False
2592,'Widget 2592',51.0,True
2593,'Widget 2593',53.33,False
2594,'Widget 2594',55.67,True
2595,'Widget 2595',58.0,False
2596,'Widget 2596',60.33,True
2597,'Widget 2597',62.67,False
2598,'Widget 2598',65.0,True
2599,'Widget 2599',67.33,False
2600,'Widget 2600',69.67,True
2601,'Widget 2601',72.0,False
2602,'Widget 2602',74.33,True
2603,'Widget 2603',76.67,False
2604,'Widget 2604',79.0,True
2605,'Widget 2605',81.33,False
2606,'Widget 2606',83.67,True
2607,'Widget 2607',86.0,False
2608,'Widget 2608',88.33,True
2609,'Widget 2609',90.67,False
2610,'Widget 2610',93.0,True
2611,'Widget 2611',95.33,False
2612,'Widget 2612',97.67,True
2613,'Widget 2613',100.0,False
2614,'Widget 2614',102.33,True
2615,'Widget 2615',104.67,False
2616,'Widget 2616',107.0,True
2617,'Widget 2617',109.33,False
2618,'Widget 2618',111.67,True
2619,'Widget 2619',114.0,False
2620,'Widget 2620',116.33,True
2621,'Widget 2621',118.67,False
2622,'Widget 2622',121.0,True
2623,'Widget 2623',123.33,False
2624,'Widget 2624',125.67,True
2625,'Widget 2625',128.0,False
2626,'Widget 2626',130.33,True
2627,'Widget 2627',132.67,False
2628,'Widget 2628',135.0,True
2629,'Widget 2629',137.33,False
2630,'Widget 2630',139.67,True
2631,'Widget 2631',142.0,False
2632,'Widget 2632',144.33,True
2633,'Widget 2633',146.67,False
2634,'Widget 2634',149.0,True
2635,'Widget 2635',151.33,False
2636,'Widget 2636',153.67,True
2637,'Widget 2637',156.0,False
2638,'Widget 2638',158.33,True
2639,'Widget 2639',160.67,False
2640,'Widget 2640',163.0,True
2641,'Widget 2641',165.33,False
2642,'Widget 2642',167.67,True
2643,'Widget 2643',3.33,False
2644,'Widget 2644',5.67,True
2645,'Widget 2645',8.0,False
2646,'Widget 2646',10.33,True
2647,'Widget 2647',12.67,False
2648,'Widget 2648',15.0,True
2649,'Widget 2649',17.33,False
2650,'Widget 2650',19.67,True
2651,'Widget 2651',22.0,False
2652,'Widget 2652',24.33,True
2653,'Widget 2653',26.67,False
2654,'Widget 2654',29.0,True
2655,'Widget 2655',31.33,False
2656,'Widget 2656',33.67,True
2657,'Widget 2657',36.0,False
2658,'Widget 2658',38.33,True
2659,'Widget 2659',40.67,False
2660,'Widget 2660',43.0,True
2661,'Widget 2661',45.33,False
2662,'Widget 2662',47.67,True
2663,'Widget 2663',50.0,False
2664,'Widget 2664',52.33,True
2665,'Widget 2665',54.67,False
2666,'Widget 2666',57.0,True
2667,'Widget 2667',59.33,False
2668,'Widget 2668',61.67,True
2669,'Widget 2669',64.0,False
2670,'Widget 2670',66.33,True
2671,'Widget 2671',68.67,False
2672,'Widget 2672',71.0,True
2673,'Widget 2673',73.33,False
2674,'Widget 2674',75.67,True
2675,'Widget 2675',78.0,False
2676,'Widget 2676',80.33,True
2677,'Widget 2677',82.67,False
2678,'Widget 2678',85.0,True
2679,'Widget 2679',87.33,False
2680,'Widget 2680',89.67,True
2681,'Widget 2681',92.0,False
2682,'Widget 2682',94.33,True
2683,'Widget 2683',96.67,False
2684,'Widget 2684',99.0,True
2685,'Widget 2685',101.33,False
2686,'Widget 2686',103.67,True
2687,'Widget 2687',106.0,False
2688,'Widget 2688',108.33,True
2689,'Widget 2689',110.67,False
2690,'Widget 2690',113.0,True
2691,'Widget 2691',115.33,False
2692,'Widget 2692',117.67,True
2693,'Widget 2693',120.0,False
2694,'Widget 2694',122.33,True
2695,'Widget 2695',124.67,False
2696,'Widget 2696',127.0,True
2697,'Widget 2697',129.33,False
2698,'Widget 2698',131.67,True
2699,'Widget 2699',134.0,False
2700,'Widget 2700',136.33,True
2701,'Widget 2701',138.67,False
2702,'Widget 2702',141.0,True
2703,'Widget 2703',143.33,False
2704,'Widget 2704',145.67,True
2705,'Widget 2705',148.0,False
2706,'Widget 2706',150.33,True
2707,'Widget 2707',152.67,False
2708,'Widget 2708',155.0,True
2709,'Widget 2709',157.33,False
2710,'Widget 2710',159.67,True
2711,'Widget 2711',162.0,False
2712,'Widget 2712',164.33,True
2713,'Widget 2713',166.67,False
2714,'Widget 2714',169.0,True
2715,'Widget 2715',4.67,False
2716,'Widget 2716',7.0,True
2717,'Widget 2717',9.33,False
2718,'Widget 2718',11.67,True
2719,'Widget 2719',14.0,False
2720,'Widget 2720',16.33,True
2721,'Widget 2721',18.67,False
2722,'Widget 2722',21.0,True
2723,'Widget 2723',23.33,False
2724,'Widget 2724',25.67,True
2725,'Widget 2725',28.0,False
2726,'Widget 2726',30.33,True
2727,'Widget 2727',32.67,False
2728,'Widget 2728',35.0,True
2729,'Widget 2729',37.33,False
2730,'Widget 2730',39.67,True
2731,'Widget 2731',42.0,False
2732,'Widget 2732',44.33,True
2733,'Widget 2733',46.67,False
2734,'Widget 2734',49.0,True
2735,'Widget 2735',51.33,False
2736,'Widget 2736',53.67,True
2737,'Widget 2737',56.0,False
2738,'Widget 2738',58.33,True
2739,'Widget 2739',60.67,False
2740,'Widget 2740',63.0,True
2741,'Widget 2741',65.33,False
2742,'Widget 2742',67.67,True
2743,'Widget 2743',70.0,False
2744,'Widget 2744',72.33,True
2745,'Widget 2745',74.67,False
2746,'Widget 2746',77.0,True
2747,'Widget 2747',79.33,False
2748,'Widget 2748',81.67,True
2749,'Widget 2749',84.0,False
2750,'Widget 2750',86.33,True
2751,'Widget 2751',88.67,False
2752,'Widget 2752',91.0,True
2753,'Widget 2753',93.33,False
2754,'Widget 2754',95.67,True
2755,'Widget 2755',98.0,False
2756,'Widget 2756',100.33,True
2757,'Widget 2757',102.67,False
2758,'Widget 2758',105.0,True
2759,'Widget 2759',107.33,False
2760,'Widget 2760',109.67,True
2761,'Widget 2761',112.0,False
2762,'Widget 2762',114.33,True
2763,'Widget 2763',116.67,False
2764,'Widget 2764',119.0,True
2765,'Widget 2765',121.33,False
2766,'Widget 2766',123.67,True
2767,'Widget 2767',126.0,False
2768,'Widget 2768',128.33,True
2769,'Widget 2769',130.67,False
2770,'Widget 2770',133.0,True
2771,'Widget 2771',135.33,False
2772,'Widget 2772',137.67,True
2773,'Widget 2773',140.0,False
2774,'Widget 2774',142.33,True
2775,'Widget 2775',144.67,False
2776,'Widget 2776',147.0,True
2777,'Widget 2777',149.33,False
2778,'Widget 2778',151.67,True
2779,'Widget 2779',154.0,False
2780,'Widget 2780',156.33,True
2781,'Widget 2781',158.67,False
2782,'Widget 2782',161.0,True
2783,'Widget 2783',163.33,False
2784,'Widget 2784',165.67,True
2785,'Widget 2785',168.0,False
2786,'Widget 2786',3.67,True
2787,'Widget 2787',6.0,False
2788,'Widget 2788',8.33,True
2789,'Widget 2789',10.67,False
2790,'Widget 2790',13.0,True
2791,'Widget 2791',15.33,False
2792,'Widget 2792',17.67,True
2793,'Widget 2793',20.0,False
2794,'Widget 2794',22.33,True
2795,'Widget 2795',24.67,False
2796,'Widget 2796',27.0,True
2797,'Widget 2797',29.33,False
2798,'Widget 2798',31.67,True
2799,'Widget 2799',34.0,False
2800,'Widget 2800',36.33,True
2801,'Widget 2801',38.67,False
2802,'Widget 2802',41.0,True
2803,'Widget 2803',43.33,False
2804,'Widget 2804',45.67,True
2805,'Widget 2805',48.0,False
2806,'Widget 2806',50.33,True
2807,'Widget 2807',52.67,False
2808,'Widget 2808',55.0,True
2809,'Widget 2809',57.33,False
2810,'Widget 2810',59.67,True
2811,'Widget 2811',62.0,False
2812,'Widget 2812',64.33,True
2813,'Widget 2813',66.67,False
2814,'Widget 2814',69.0,True
2815,'Widget 2815',71.33,False
2816,'Widget 2816',73.67,True
2817,'Widget 2817',76.0,False
2818,'Widget 2818',78.33,True
2819,'Widget 2819',80.67,False
2820,'Widget 2820',83.0,True
2821,'Widget 2821',85.33,False
2822,'Widget 2822',87.67,True
2823,'Widget 2823',90.0,False
2824,'Widget 2824',92.33,True
2825,'Widget 2825',94.67,False
2826,'Widget 2826',97.0,True
2827,'Widget 2827',99.33,False
2828,'Widget 2828',101.67,True
2829,'Widget 2829',104.0,False
2830,'Widget 2830',106.33,True
2831,'Widget 2831',108.67,False
2832,'Widget 2832',111.0,True
2833,'Widget 2833',113.33,False
2834,'Widget 2834',115.67,True
2835,'Widget 2835',118.0,False
2836,'Widget 2836',120.33,True
2837,'Widget 2837',122.67,False
2838,'Widget 2838',125.0,True
2839,'Widget 2839',127.33,False
2840,'Widget 2840',129.67,True
2841,'Widget 2841',132.0,False
2842,'Widget 2842',134.33,True
2843,'Widget 2843',136.67,False
2844,'Widget 2844',139.0,True
2845,'Widget 2845',141.33,False
2846,'Widget 2846',143.67,True
2847,'Widget 2847',146.0,False
2848,'Widget 2848',148.33,True
2849,'Widget 2849',150.67,False
2850,'Widget 2850',153.0,True
2851,'Widget 2851',155.33,False
2852,'Widget 2852',157.67,True
2853,'Widget 2853',160.0,False
2854,'Widget 2854',162.33,True
2855,'Widget 2855',164.67,False
2856,'Widget 2856',167.0,True
2857,'Widget 2857',169.33,False
2858,'Widget 2858',5.0,True
2859,'Widget 2859',7.33,False
2860,'Widget 2860',9.67,True
2861,'Widget 2861',12.0,False
2862,'Widget 2862',14.33,True
2863,'Widget 2863',16.67,False
2864,'Widget 2864',19.0,True
2865,'Widget 2865',21.33,False
2866,'Widget 2866',23.67,True
2867,'Widget 2867',26.0,False
2868,'Widget 2868',28.33,True
2869,'Widget 2869',30.67,False
2870,'Widget 2870',33.0,True
2871,'Widget 2871',35.33,False
2872,'Widget 2872',37.67,True
2873,'Widget 2873',40.0,False
2874,'Widget 2874',42.33,True
2875,'Widget 2875',44.67,False
2876,'Widget 2876',47.0,True
2877,'Widget 2877',49.33,False
2878,'Widget 2878',51.67,True
2879,'Widget 2879',54.0,False
2880,'Widget 2880',56.33,True
2881,'Widget 2881',58.67,False
2882,'Widget 2882',61.0,True
2883,'Widget 2883',63.33,False
2884,'Widget 2884',65.67,True
2885,'Widget 2885',68.0,False
2886,'Widget 2886',70.33,True
2887,'Widget 2887',72.67,False
2888,'Widget 2888',75.0,True
2889,'Widget 2889',77.33,False
2890,'Widget 2890',79.67,True
2891,'Widget 2891',82.0,False
2892,'Widget 2892',84.33,True
2893,'Widget 2893',86.67,False
2894,'Widget 2894',89.0,True
2895,'Widget 2895',91.33,False
2896,'Widget 2896',93.67,True
2897,'Widget 2897',96.0,False
2898,'Widget 2898',98.33,True
2899,'Widget 2899',100.67,False
2900,'Widget 2900',103.0,True
2901,'Widget 2901',105.33,False
2902,'Widget 2902',107.67,True
2903,'Widget 2903',110.0,False
2904,'Widget 2904',112.33,True
2905,'Widget 2905',114.67,False
2906,'Widget 2906',117.0,True
2907,'Widget 2907',119.33,False
2908,'Widget 2908',121.67,True
2909,'Widget 2909',124.0,False
2910,'Widget 2910',126.33,True
2911,'Widget 2911',128.67,False
2912,'Widget 2912',131.0,True
2913,'Widget 2913',133.33,False
2914,'Widget 2914',135.67,True
2915,'Widget 2915',138.0,False
2916,'Widget 2916',140.33,True
2917,'Widget 2917',142.67,False
2918,'Widget 2918',145.0,True
2919,'Widget 2919',147.33,False
2920,'Widget 2920',149.67,True
2921,'Widget 2921',152.0,False
2922,'Widget 2922',154.33,True
2923,'Widget 2923',156.67,False
2924,'Widget 2924',159.0,True
2925,'Widget 2925',161.33,False
2926,'Widget 2926',163.67,True
2927,'Widget 2927',166.0,False
2928,'Widget 2928',168.33,True
2929,'Widget 2929',4.0,False
2930,'Widget 2930',6.33,True
2931,'Widget 2931',8.67,False
2932,'Widget 2932',11.0,True
2933,'Widget 2933',13.33,False
2934,'Widget 2934',15.67,True
2935,'Widget 2935',18.0,False
2936,'Widget 2936',20.33,True
2937,'Widget 2937',22.67,False
2938,'Widget 2938',25.0,True
2939,'Widget 2939',27.33,False
2940,'Widget 2940',29.67,True
2941,'Widget 2941',32.0,False
2942,'Widget 2942',34.33,True
2943,'Widget 2943',36.67,False
2944,'Widget 2944',39.0,True
2945,'Widget 2945',41.33,False
2946,'Widget 2946',43.67,True
2947,'Widget 2947',46.0,False
2948,'Widget 2948',48.33,True
2949,'Widget 2949',50.67,False
2950,'Widget 2950',53.0,True
2951,'Widget 2951',55.33,False
2952,'Widget 2952',57.67,True
2953,'Widget 2953',60.0,False
2954,'Widget 2954',62.33,True
2955,'Widget 2955',64.67,False
2956,'Widget 2956',67.0,True
2957,'Widget 2957',69.33,False
2958,'Widget 2958',71.67,True
2959,'Widget 2959',74.0,False
2960,'Widget 2960',76.33,True
2961,'Widget 2961',78.67,False
2962,'Widget 2962',81.0,True
2963,'Widget 2963',83.33,False
2964,'Widget 2964',85.67,True
2965,'Widget 2965',88.0,False
2966,'Widget 2966',90.33,True
2967,'Widget 2967',92.67,False
2968,'Widget 2968',95.0,True
2969,'Widget 2969',97.33,False
2970,'Widget 2970',99.67,True
2971,'Widget 2971',102.0,False
2972,'Widget 2972',104.33,True
2973,'Widget 2973',106.67,False
2974,'Widget 2974',109.0,True
2975,'Widget 2975',111.33,False
2976,'Widget 2976',113.67,True
2977,'Widget 2977',116.0,False
2978,'Widget 2978',118.33,True
2979,'Widget 2979',120.67,False
2980,'Widget 2980',123.0,True
2981,'Widget 2981',125.33,False
2982,'Widget 2982',127.67,True
2983,'Widget 2983',130.0,False
2984,'Widget 2984',132.33,True
2985,'Widget 2985',134.67,False
2986,'Widget 2986',137.0,True
2987,'Widget 2987',139.33,False
2988,'Widget 2988',141.67,True
2989,'Widget 2989',144.0,False
2990,'Widget 2990',146.33,True
2991,'Widget 2991',148.67,False
2992,'Widget 2992',151.0,True
2993,'Widget 2993',153.33,False
2994,'Widget 2994',155.67,True
2995,'Widget 2995',158.0,False
2996,'Widget 2996',160.33,True
2997,'Widget 2997',162.67,False
2998,'Widget 2998',165.0,True
2999,'Widget 2999',167.33,False
3000,'Widget 3000',3.0,True
3001,'Widget 3001',5.33,False
3002,'Widget 3002',7.67,True
3003,'Widget 3003',10.0,False
3004,'Widget 3004',12.33,True
3005,'Widget 3005',14.67,False
3006,'Widget 3006',17.0,True
3007,'Widget 3007',19.33,False
3008,'Widget 3008',21.67,True
3009,'Widget 3009',24.0,False
3010,'Widget 3010',26.33,True
3011,'Widget 3011',28.67,False
3012,'Widget 3012',31.0,True
3013,'Widget 3013',33.33,False
3014,'Widget 3014',35.67,True
3015,'Widget 3015',38.0,False
3016,'Widget 3016',40.33,True
3017,'Widget 3017',42.67,False
3018,'Widget 3018',45.0,True
3019,'Widget 3019',47.33,False
3020,'Widget 3020',49.67,True
3021,'Widget 3021',52.0,False
3022,'Widget 3022',54.33,True
3023,'Widget 3023',56.67,False
3024,'Widget 3024',59.0,True
3025,'Widget 3025',61.33,False
3026,'Widget 3026',63.67,True
3027,'Widget 3027',66.0,False
3028,'Widget 3028',68.33,True
3029,'Widget 3029',70.67,False
3030,'Widget 3030',73.0,True
3031,'Widget 3031',75.33,False
3032,'Widget 3032',77.67,True
3033,'Widget 3033',80.0,False
3034,'Widget 3034',82.33,True
3035,'Widget 3035',84.67,False
3036,'Widget 3036',87.0,True
3037,'Widget 3037',89.33,False
3038,'Widget 3038',91.67,True
3039,'Widget 3039',94.0,False
3040,'Widget 3040',96.33,True
3041,'Widget 3041',98.67,False
3042,'Widget 3042',101.0,True
3043,'Widget 3043',103.33,False
3044,'Widget 3044',105.67,True
3045,'Widget 3045',108.0,False
3046,'Widget 3046',110.33,True
3047,'Widget 3047',112.67,False
3048,'Widget 3048',115.0,True
3049,'Widget 3049',117.33,False
3050,'Widget 3050',119.67,True
3051,'Widget 3051',122.0,False
3052,'Widget 3052',124.33,True
3053,'Widget 3053',126.67,False
3054,'Widget 3054',129.0,True
3055,'Widget 3055',131.33,False
3056,'Widget 3056',133.67,True
3057,'Widget 3057',136.0,False
3058,'Widget 3058',138.33,True
3059,'Widget 3059',140.67,False
3060,'Widget 3060',143.0,True
3061,'Widget 3061',145.33,False
3062,'Widget 3062',147.67,True
3063,'Widget 3063',150.0,False
3064,'Widget 3064',152.33,True
3065,'Widget 3065',154.67,False
3066,'Widget 3066',157.0,True
3067,'Widget 3067',159.33,False
3068,'Widget 3068',161.67,True
3069,'Widget 3069',164.0,False
3070,'Widget 3070',166.33,True
3071,'Widget 3071',168.67,False
3072,'Widget 3072',4.33,True
3073,'Widget 3073',6.67,False
3074,'Widget 3074',9.0,True
3075,'Widget 3075',11.33,False
3076,'Widget 3076',13.67,True
3077,'Widget 3077',16.0,False
3078,'Widget 3078',18.33,True
3079,'Widget 3079',20.67,False
3080,'Widget 3080',23.0,True
3081,'Widget 3081',25.33,False
3082,'Widget 3082',27.67,True
3083,'Widget 3083',30.0,False
3084,'Widget 3084',32.33,True
3085,'Widget 3085',34.67,False
3086,'Widget 3086',37.0,True
3087,'Widget 3087',39.33,False
3088,'Widget 3088',41.67,True
3089,'Widget 3089',44.0,False
3090,'Widget 3090',46.33,True
3091,'Widget 3091',48.67,False
3092,'Widget 3092',51.0,True
3093,'Widget 3093',53.33,False
3094,'Widget 3094',55.67,True
3095,'Widget 3095',58.0,False
3096,'Widget 3096',60.33,True
3097,'Widget 3097',62.67,False
3098,'Widget 3098',65.0,True
3099,'Widget 3099',67.33,False
3100,'Widget 3100',69.67,True
3101,'Widget 3101',72.0,False
3102,'Widget 3102',74.33,True
3103,'Widget 3103',76.67,False
3104,'Widget 3104',79.0,True
3105,'Widget 3105',81.33,False
3106,'Widget 3106',83.67,True
3107,'Widget 3107',86.0,False
3108,'Widget 3108',88.33,True
3109,'Widget 3109',90.67,False
3110,'Widget 3110',93.0,True
3111,'Widget 3111',95.33,False
3112,'Widget 3112',97.67,True
3113,'Widget 3113',100.0,False
3114,'Widget 3114',102.33,True
3115,'Widget 3115',104.67,False
3116,'Widget 3116',107.0,True
3117,'Widget 3117',109.33,False
3118,'Widget 3118',111.67,True
3119,'Widget 3119',114.0,False
3120,'Widget 3120',116.33,True
3121,'Widget 3121',118.67,False
3122,'Widget 3122',121.0,True
3123,'Widget 3123',123.33,False
3124,'Widget 3124',125.67,True
3125,'Widget 3125',128.0,False
3126,'Widget 3126',130.33,True
3127,'Widget 3127',132.67,False
3128,'Widget 3128',135.0,True
3129,'Widget 3129',137.33,False
3130,'Widget 3130',139.67,True
3131,'Widget 3131',142.0,False
3132,'Widget 3132',144.33,True
3133,'Widget 3133',146.67,False
3134,'Widget 3134',149.0,True
3135,'Widget 3135',151.33,False
3136,'Widget 3136',153.67,True
3137,'Widget 3137',156.0,False
3138,'Widget 3138',158.33,True
3139,'Widget 3139',160.67,False
3140,'Widget 3140',163.0,True
3141,'Widget 3141',165.33,False
3142,'Widget 3142',167.67,True
3143,'Widget 3143',3.33,False
3144,'Widget 3144',5.67,True
3145,'Widget 3145',8.0,False
3146,'Widget 3146',10.33,True
3147,'Widget 3147',12.67,False
3148,'Widget 3148',15.0,True
3149,'Widget 3149',17.33,False
3150,'Widget 3150',19.67,True
3151,'Widget 3151',22.0,False
3152,'Widget 3152',24.33,True
3153,'Widget 3153',26.67,False
3154,'Widget 3154',29.0,True
3155,'Widget 3155',31.33,False
3156,'Widget 3156',33.67,True
3157,'Widget 3157',36.0,False
3158,'Widget 3158',38.33,True
3159,'Widget 3159',40.67,False
3160,'Widget 3160',43.0,True
3161,'Widget 3161',45.33,False
3162,'Widget 3162',47.67,True
3163,'Widget 3163',50.0,False
3164,'Widget 3164',52.33,True
3165,'Widget 3165',54.67,False
3166,'Widget 3166',57.0,True
3167,'Widget 3167',59.33,False
3168,'Widget 3168',61.67,True
3169,'Widget 3169',64.0,False
3170,'Widget 3170',66.33,True
3171,'Widget 3171',68.67,False
3172,'Widget 3172',71.0,True
3173,'Widget 3173',73.33,False
3174,'Widget 3174',75.67,True
3175,'Widget 3175',78.0,False
3176,'Widget 3176',80.33,True
3177,'Widget 3177',82.67,False
3178,'Widget 3178',85.0,True
3179,'Widget 3179',87.33,False
3180,'Widget 3180',89.67,True
3181,'Widget 3181',92.0,False
3182,'Widget 3182',94.33,True
3183,'Widget 3183',96.67,False
3184,'Widget 3184',99.0,True
3185,'Widget 3185',101.33,False
3186,'Widget 3186',103.67,True
3187,'Widget 3187',106.0,False
3188,'Widget 3188',108.33,True
3189,'Widget 3189',110.67,False
3190,'Widget 3190',113.0,True
3191,'Widget 3191',115.33,False
3192,'Widget 3192',117.67,True
3193,'Widget 3193',120.0,False
3194,'Widget 3194',122.33,True
3195,'Widget 3195',124.67,False
3196,'Widget 3196',127.0,True
3197,'Widget 3197',129.33,False
3198,'Widget 3198',131.67,True
3199,'Widget 3199',134.0,False
3200,'Widget 3200',136.33,True
3201,'Widget 3201',138.67,False
3202,'Widget 3202',141.0,True
3203,'Widget 3203',143.33,False
3204,'Widget 3204',145.67,True
3205,'Widget 3205',148.0,False
3206,'Widget 3206',150.33,True
3207,'Widget 3207',152.67,False
3208,'Widget 3208',155.0,True
3209,'Widget 3209',157.33,False
3210,'Widget 3210',159.67,True
3211,'Widget 3211',162.0,False
3212,'Widget 3212',164.33,True
3213,'Widget 3213',166.67,False
3214,'Widget 3214',169.0,True
3215,'Widget 3215',4.67,False
3216,'Widget 3216',7.0,True
3217,'Widget 3217',9.33,False
3218,'Widget 3218',11.67,True
3219,'Widget 3219',14.0,False
3220,'Widget 3220',16.33,True
3221,'Widget 3221',18.67,False
3222,'Widget 3222',21.0,True
3223,'Widget 3223',23.33,False
3224,'Widget 3224',25.67,True
3225,'Widget 3225',28.0,False
3226,'Widget 3226',30.33,True
3227,'Widget 3227',32.67,False
3228,'Widget 3228',35.0,True
3229,'Widget 3229',37.33,False
3230,'Widget 3230',39.67,True
3231,'Widget 3231',42.0,False
3232,'Widget 3232',44.33,True
3233,'Widget 3233',46.67,False
3234,'Widget 3234',49.0,True
3235,'Widget 3235',51.33,False
3236,'Widget 3236',53.67,True
3237,'Widget 3237',56.0,False
3238,'Widget 3238',58.33,True
3239,'Widget 3239',60.67,False
3240,'Widget 3240',63.0,True
3241,'Widget 3241',65.33,False
3242,'Widget 3242',67.67,True
3243,'Widget 3243',70.0,False
3244,'Widget 3244',72.33,True
3245,'Widget 3245',74.67,False
3246,'Widget 3246',77.0,True
3247,'Widget 3247',79.33,False
3248,'Widget 3248',81.67,True
3249,'Widget 3249',84.0,False
3250,'Widget 3250',86.33,True
3251,'Widget 3251',88.67,False
3252,'Widget 3252',91.0,True
3253,'Widget 3253',93.33,False
3254,'Widget 3254',95.67,True
3255,'Widget 3255',98.0,False
3256,'Widget 3256',100.33,True
3257,'Widget 3257',102.67,False
3258,'Widget 3258',105.0,True
3259,'Widget 3259',107.33,False
3260,'Widget 3260',109.67,True
3261,'Widget 3261',112.0,False
3262,'Widget 3262',114.33,True
3263,'Widget 3263',116.67,False
3264,'Widget 3264',119.0,True
3265,'Widget 3265',121.33,False
3266,'Widget 3266',123.67,True
3267,'Widget 3267',126.0,False
3268,'Widget 3268',128.33,True
3269,'Widget 3269',130.67,False
3270,'Widget 3270',133.0,True
3271,'Widget 3271',135.33,False
3272,'Widget 3272',137.67,True
3273,'Widget 3273',140.0,False
3274,'Widget 3274',142.33,True
3275,'Widget 3275',144.67,False
3276,'Widget 3276',147.0,True
3277,'Widget 3277',149.33,False
3278,'Widget 3278',151.67,True
3279,'Widget 3279',154.0,False
3280,'Widget 3280',156.33,True
3281,'Widget 3281',158.67,False
3282,'Widget 3282',161.0,True
3283,'Widget 3283',163.33,False
3284,'Widget 3284',165.67,True
3285,'Widget 3285',168.0,False
3286,'Widget 3286',3.67,True
3287,'Widget 3287',6.0,False
3288,'Widget 3288',8.33,True
3289,'Widget 3289',10.67,False
3290,'Widget 3290',13.0,True
3291,'Widget 3291',15.33,False
3292,'Widget 3292',17.67,True
3293,'Widget 3293',20.0,False
3294,'Widget 3294',22.33,True
3295,'Widget 3295',24.67,False
3296,'Widget 3296',27.0,True
3297,'Widget 3297',29.33,False
3298,'Widget 3298',31.67,True
3299,'Widget 3299',34.0,False
3300,'Widget 3300',36.33,True
3301,'Widget 3301',38.67,False
3302,'Widget 3302',41.0,True
3303,'Widget 3303',43.33,False
3304,'Widget 3304',45.67,True
3305,'Widget 3305',48.0,False
3306,'Widget 3306',50.33,True
3307,'Widget 3307',52.67,False
3308,'Widget 3308',55.0,True
3309,'Widget 3309',57.33,False
3310,'Widget 3310',59.67,True
3311,'Widget 3311',62.0,False
3312,'Widget 3312',64.33,True
3313,'Widget 3313',66.67,False
3314,'Widget 3314',69.0,True
3315,'Widget 3315',71.33,False
3316,'Widget 3316',73.67,True
3317,'Widget 3317',76.0,False
3318,'Widget 3318',78.33,True
3319,'Widget 3319',80.67,False
3320,'Widget 3320',83.0,True
3321,'Widget 3321',85.33,False
3322,'Widget 3322',87.67,True
3323,'Widget 3323',90.0,False
3324,'Widget 3324',92.33,True
3325,'Widget 3325',94.67,False
3326,'Widget 3326',97.0,True
3327,'Widget 3327',99.33,False
3328,'Widget 3328',101.67,True
3329,'Widget 3329',104.0,False
3330,'Widget 3330',106.33,True
3331,'Widget 3331',108.67,False
3332,'Widget 3332',111.0,True
3333,'Widget 3333',113.33,False
3334,'Widget 3334',115.67,True
3335,'Widget 3335',118.0,False
3336,'Widget 3336',120.33,True
3337,'Widget 3337',122.67,False
3338,'Widget 3338',125.0,True
3339,'Widget 3339',127.33,False
3340,'Widget 3340',129.67,True
3341,'Widget 3341',132.0,False
3342,'Widget 3342',134.33,True
3343,'Widget 3343',136.67,False
3344,'Widget 3344',139.0,True
3345,'Widget 3345',141.33,False
3346,'Widget 3346',143.67,True
3347,'Widget 3347',146.0,False
3348,'Widget 3348',148.33,True
3349,'Widget 3349',150.67,False
3350,'Widget 3350',153.0,True
3351,'Widget 3351',155.33,False
3352,'Widget 3352',157.67,True
3353,'Widget 3353',160.0,False
3354,'Widget 3354',162.33,True
3355,'Widget 3355',164.67,False
3356,'Widget 3356',167.0,True
3357,'Widget 3357',169.33,False
3358,'Widget 3358',5.0,True
3359,'Widget 3359',7.33,False
3360,'Widget 3360',9.67,True
3361,'Widget 3361',12.0,False
3362,'Widget 3362',14.33,True
3363,'Widget 3363',16.67,False
3364,'Widget 3364',19.0,True
3365,'Widget 3365',21.33,False
3366,'Widget 3366',23.67,True
3367,'Widget 3367',26.0,False
3368,'Widget 3368',28.33,True
3369,'Widget 3369',30.67,False
3370,'Widget 3370',33.0,True
3371,'Widget 3371',35.33,False
3372,'Widget 3372',37.67,True
3373,'Widget 3373',40.0,False
3374,'Widget 3374',42.33,True
3375,'Widget 3375',44.67,False
3376,'Widget 3376',47.0,True
3377,'Widget 3377',49.33,False
3378,'Widget 3378',51.67,True
3379,'Widget 3379',54.0,False
3380,'Widget 3380',56.33,True
3381,'Widget 3381',58.67,False
3382,'Widget 3382',61.0,True
3383,'Widget 3383',63.33,False
3384,'Widget 3384',65.67,True
3385,'Widget 3385',68.0,False
3386,'Widget 3386',70.33,True
3387,'Widget 3387',72.67,False
3388,'Widget 3388',75.0,True
3389,'Widget 3389',77.33,False
3390,'Widget 3390',79.67,True
3391,'Widget 3391',82.0,False
3392,'Widget 3392',84.33,True
3393,'Widget 3393',86.67,False
3394,'Widget 3394',89.0,True
3395,'Widget 3395',91.33,False
3396,'Widget 3396',93.67,True
3397,'Widget 3397',96.0,False
3398,'Widget 3398',98.33,True
3399,'Widget 3399',100.67,False
3400,'Widget 3400',103.0,True
3401,'Widget 3401',105.33,False
3402,'Widget 3402',107.67,True
3403,'Widget 3403',110.0,False
3404,'Widget 3404',112.33,True
3405,'Widget 3405',114.67,False
3406,'Widget 3406',117.0,True
3407,'Widget 3407',119.33,False
3408,'Widget 3408',121.67,True
3409,'Widget 3409',124.0,False
3410,'Widget 3410',126.33,True
3411,'Widget 3411',128.67,False
3412,'Widget 3412',131.0,True
3413,'Widget 3413',133.33,False
3414,'Widget 3414',135.67,True
3415,'Widget 3415',138.0,False
3416,'Widget 3416',140.33,True
3417,'Widget 3417',142.67,False
3418,'Widget 3418',145.0,True
3419,'Widget 3419',147.33,False
3420,'Widget 3420',149.67,True
3421,'Widget 3421',152.0,False
3422,'Widget 3422',154.33,True
3423,'Widget 3423',156.67,False
3424,'Widget 3424',159.0,True
3425,'Widget 3425',161.33,False
3426,'Widget 3426',163.67,True
3427,'Widget 3427',166.0,False
3428,'Widget 3428',168.33,True
3429,'Widget 3429',4.0,False
3430,'Widget 3430',6.33,True
3431,'Widget 3431',8.67,False
3432,'Widget 3432',11.0,True
3433,'Widget 3433',13.33,False
3434,'Widget 3434',15.67,True
3435,'Widget 3435',18.0,False
3436,'Widget 3436',20.33,True
3437,'Widget 3437',22.67,False
3438,'Widget 3438',25.0,True
3439,'Widget 3439',27.33,False
3440,'Widget 3440',29.67,True
3441,'Widget 3441',32.0,False
3442,'Widget 3442',34.33,True
3443,'Widget 3443',36.67,False
3444,'Widget 3444',39.0,True
3445,'Widget 3445',41.33,False
3446,'Widget 3446',43.67,True
3447,'Widget 3447',46.0,False
3448,'Widget 3448',48.33,True
3449,'Widget 3449',50.67,False
3450,'Widget 3450',53.0,True
3451,'Widget 3451',55.33,False
3452,'Widget 3452',57.67,True
3453,'Widget 3453',60.0,False
3454,'Widget 3454',62.33,True
3455,'Widget 3455',64.67,False
3456,'Widget 3456',67.0,True
3457,'Widget 3457',69.33,False
3458,'Widget 3458',71.67,True
3459,'Widget 3459',74.0,False
3460,'Widget 3460',76.33,True
3461,'Widget 3461',78.67,False
3462,'Widget 3462',81.0,True
3463,'Widget 3463',83.33,False
3464,'Widget 3464',85.67,True
3465,'Widget 3465',88.0,False
3466,'Widget 3466',90.33,True
3467,'Widget 3467',92.67,False
3468,'Widget 3468',95.0,True
3469,'Widget 3469',97.33,False
3470,'Widget 3470',99.67,True
3471,'Widget 3471',102.0,False
3472,'Widget 3472',104.33,True
3473,'Widget 3473',106.67,False
3474,'Widget 3474',109.0,True
3475,'Widget 3475',111.33,False
3476,'Widget 3476',113.67,True
3477,'Widget 3477',116.0,False
3478,'Widget 3478',118.33,True
3479,'Widget 3479',120.67,False
3480,'Widget 3480',123.0,True
3481,'Widget 3481',125.33,False
3482,'Widget 3482',127.67,True
3483,'Widget 3483',130.0,False
3484,'Widget 3484',132.33,True
3485,'Widget 3485',134.67,False
3486,'Widget 3486',137.0,True
3487,'Widget 3487',139.33,False
3488,'Widget 3488',141.67,True
3489,'Widget 3489',144.0,False
3490,'Widget 3490',146.33,True
3491,'Widget 3491',148.67,False
3492,'Widget 3492',151.0,True
3493,'Widget 3493',153.33,False
3494,'Widget 3494',155.67,True
3495,'Widget 3495',158.0,False
3496,'Widget 3496',160.33,True
3497,'Widget 3497',162.67,False
3498,'Widget 3498',165.0,True
3499,'Widget 3499',167.33,False
3500,'Widget 3500',3.0,True
3501,'Widget 3501',5.33,False
3502,'Widget 3502',7.67,True
3503,'Widget 3503',10.0,False
3504,'Widget 3504',12.33,True
3505,'Widget 3505',14.67,False
3506,'Widget 3506',17.0,True
3507,'Widget 3507',19.33,False
3508,'Widget 3508',21.67,True
3509,'Widget 3509',24.0,False
3510,'Widget 3510',26.33,True
3511,'Widget 3511',28.67,False
3512,'Widget 3512',31.0,True
3513,'Widget 3513',33.33,False
3514,'Widget 3514',35.67,True
3515,'Widget 3515',38.0,False
3516,'Widget 3516',40.33,True
3517,'Widget 3517',42.67,False
3518,'Widget 3518',45.0,True
3519,'Widget 3519',47.33,False
3520,'Widget 3520',49.67,True
3521,'Widget 3521',52.0,False
3522,'Widget 3522',54.33,True
3523,'Widget 3523',56.67,False
3524,'Widget 3524',59.0,True
3525,'Widget 3525',61.33,False
3526,'Widget 3526',63.67,True
3527,'Widget 3527',66.0,False
3528,'Widget 3528',68.33,True
3529,'Widget 3529',70.67,False
3530,'Widget 3530',73.0,True
3531,'Widget 3531',75.33,False
3532,'Widget 3532',77.67,True
3533,'Widget 3533',80.0,False
3534,'Widget 3534',82.33,True
3535,'Widget 3535',84.67,False
3536,'Widget 3536',87.0,True
3537,'Widget 3537',89.33,False
3538,'Widget 3538',91.67,True
3539,'Widget 3539',94.0,False
3540,'Widget 3540',96.33,True
3541,'Widget 3541',98.67,False
3542,'Widget 3542',101.0,True
3543,'Widget 3543',103.33,False
3544,'Widget 3544',105.67,True
3545,'Widget 3545',108.0,False
3546,'Widget 3546',110.33,True
3547,'Widget 3547',112.67,False
3548,'Widget 3548',115.0,True
3549,'Widget 3549',117.33,False
3550,'Widget 3550',119.67,True
3551,'Widget 3551',122.0,False
3552,'Widget 3552',124.33,True
3553,'Widget 3553',126.67,False
3554,'Widget 3554',129.0,True
3555,'Widget 3555',131.33,False
3556,'Widget 3556',133.67,True
3557,'Widget 3557',136.0,False
3558,'Widget 3558',138.33,True
3559,'Widget 3559',140.67,False
3560,'Widget 3560',143.0,True
3561,'Widget 3561',145.33,False
3562,'Widget 3562',147.67,True
3563,'Widget 3563',150.0,False
3564,'Widget 3564',152.33,True
3565,'Widget 3565',154.67,False
3566,'Widget 3566',157.0,True
3567,'Widget 3567',159.33,False
3568,'Widget 3568',161.67,True
3569,'Widget 3569',164.0,False
3570,'Widget 3570',166.33,True
3571,'Widget 3571',168.67,False
3572,'Widget 3572',4.33,True
3573,'Widget 3573',6.67,False
3574,'Widget 3574',9.0,True
3575,'Widget 3575',11.33,False
3576,'Widget 3576',13.67,True
3577,'Widget 3577',16.0,False
3578,'Widget 3578',18.33,True
3579,'Widget 3579',20.67,False
3580,'Widget 3580',23.0,True
3581,'Widget 3581',25.33,False
3582,'Widget 3582',27.67,True
3583,'Widget 3583',30.0,False
3584,'Widget 3584',32.33,True
3585,'Widget 3585',34.67,False
3586,'Widget 3586',37.0,True
3587,'Widget 3587',39.33,False
3588,'Widget 3588',41.67,True
3589,'Widget 3589',44.0,False
3590,'Widget 3590',46.33,True
3591,'Widget 3591',48.67,False
3592,'Widget 3592',51.0,True
3593,'Widget 3593',53.33,False
3594,'Widget 3594',55.67,True
3595,'Widget 3595',58.0,False
3596,'Widget 3596',60.33,True
3597,'Widget 3597',62.67,False
3598,'Widget 3598',65.0,True
3599,'Widget 3599',67.33,False
3600,'Widget 3600',69.67,True
3601,'Widget 3601',72.0,False
3602,'Widget 3602',74.33,True
3603,'Widget 3603',76.67,False
3604,'Widget 3604',79.0,True
3605,'Widget 3605',81.33,False
3606,'Widget 3606',83.67,True
3607,'Widget 3607',86.0,False
3608,'Widget 3608',88.33,True
3609,'Widget 3609',90.67,False
3610,'Widget 3610',93.0,True
3611,'Widget 3611',95.33,False
3612,'Widget 3612',97.67,True
3613,'Widget 3613',100.0,False
3614,'Widget 3614',102.33,True
3615,'Widget 3615',104.67,False
3616,'Widget 3616',107.0,True
3617,'Widget 3617',109.33,False
3618,'Widget 3618',111.67,True
3619,'Widget 3619',114.0,False
3620,'Widget 3620',116.33,True
3621,'Widget 3621',118.67,False
3622,'Widget 3622',121.0,True
3623,'Widget 3623',123.33,False
3624,'Widget 3624',125.67,True
3625,'Widget 3625',128.0,False
3626,'Widget 3626',130.33,True
3627,'Widget 3627',132.67,False
3628,'Widget 3628',135.0,True
3629,'Widget 3629',137.33,False
3630,'Widget 3630',139.67,True
3631,'Widget 3631',142.0,False
3632,'Widget 3632',144.33,True
3633,'Widget 3633',146.67,False
3634,'Widget 3634',149.0,True
3635,'Widget 3635',151.33,False
3636,'Widget 3636',153.67,True
3637,'Widget 3637',156.0,False
3638,'Widget 3638',158.33,True
3639,'Widget 3639',160.67,False
3640,'Widget 3640',163.0,True
3641,'Widget 3641',165.33,False
3642,'Widget 3642',167.67,True
3643,'Widget 3643',3.33,False
3644,'Widget 3644',5.67,True
3645,'Widget 3645',8.0,False
3646,'Widget 3646',10.33,True
3647,'Widget 3647',12.67,False
3648,'Widget 3648',15.0,True
3649,'Widget 3649',17.33,False
3650,'Widget 3650',19.67,True
3651,'Widget 3651',22.0,False
3652,'Widget 3652',24.33,True
3653,'Widget 3653',26.67,False
3654,'Widget 3654',29.0,True
3655,'Widget 3655',31.33,False
3656,'Widget 3656',33.67,True
3657,'Widget 3657',36.0,False
3658,'Widget 3658',38.33,True
3659,'Widget 3659',40.67,False
3660,'Widget 3660',43.0,True
3661,'Widget 3661',45.33,False
3662,'Widget 3662',47.67,True
3663,'Widget 3663',50.0,False
3664,'Widget 3664',52.33,True
3665,'Widget 3665',54.67,False
3666,'Widget 3666',57.0,True
3667,'Widget 3667',59.33,False
3668,'Widget 3668',61.67,True
3669,'Widget 3669',64.0,False
3670,'Widget 3670',66.33,True
3671,'Widget 3671',68.67,False
3672,'Widget 3672',71.0,True
3673,'Widget 3673',73.33,False
3674,'Widget 3674',75.67,True
3675,'Widget 3675',78.0,False
3676,'Widget 3676',80.33,True
3677,'Widget 3677',82.67,False
3678,'Widget 3678',85.0,True
3679,'Widget 3679',87.33,False
3680,'Widget 3680',89.67,True
3681,'Widget 3681',92.0,False
3682,'Widget 3682',94.33,True
3683,'Widget 3683',96.67,False
3684,'Widget 3684',99.0,True
3685,'Widget 3685',101.33,False
3686,'Widget 3686',103.67,True
3687,'Widget 3687',106.0,False
3688,'Widget 3688',108.33,True
3689,'Widget 3689',110.67,False
3690,'Widget 3690',113.0,True
3691,'Widget 3691',115.33,False
3692,'Widget 3692',117.67,True
3693,'Widget 3693',120.0,False
3694,'Widget 3694',122.33,True
3695,'Widget 3695',124.67,False
3696,'Widget 3696',127.0,True
3697,'Widget 3697',129.33,False
3698,'Widget 3698',131.67,True
3699,'Widget 3699',134.0,False
3700,'Widget 3700',136.33,True
3701,'Widget 3701',138.67,False
3702,'Widget 3702',141.0,True
3703,'Widget 3703',143.33,False
3704,'Widget 3704',145.67,True
3705,'Widget 3705',148.0,False
3706,'Widget 3706',150.33,True
3707,'Widget 3707',152.67,False
3708,'Widget 3708',155.0,True
3709,'Widget 3709',157.33,False
3710,'Widget 3710',159.67,True
3711,'Widget 3711',162.0,False
3712,'Widget 3712',164.33,True
3713,'Widget 3713',166.67,False
3714,'Widget 3714',169.0,True
3715,'Widget 3715',4.67,False
3716,'Widget 3716',7.0,True
3717,'Widget 3717',9.33,False
3718,'Widget 3718',11.67,True
3719,'Widget 3719',14.0,False
3720,'Widget 3720',16.33,True
3721,'Widget 3721',18.67,False
3722,'Widget 3722',21.0,True
3723,'Widget 3723',23.33,False
3724,'Widget 3724',25.67,True
3725,'Widget 3725',28.0,False
3726,'Widget 3726',30.33,True
3727,'Widget 3727',32.67,False
3728,'Widget 3728',35.0,True
3729,'Widget 3729',37.33,False
3730,'Widget 3730',39.67,True
3731,'Widget 3731',42.0,False
3732,'Widget 3732',44.33,True
3733,'Widget 3733',46.67,False
3734,'Widget 3734',49.0,True
3735,'Widget 3735',51.33,False
3736,'Widget 3736',53.67,True
3737,'Widget 3737',56.0,False
3738,'Widget 3738',58.33,True
3739,'Widget 3739',60.67,False
3740,'Widget 3740',63.0,True
3741,'Widget 3741',65.33,False
3742,'Widget 3742',67.67,True
3743,'Widget 3743',70.0,False
3744,'Widget 3744',72.33,True
3745,'Widget 3745',74.67,False
3746,'Widget 3746',77.0,True
3747,'Widget 3747',79.33,False
3748,'Widget 3748',81.67,True
3749,'Widget 3749',84.0,False
3750,'Widget 3750',86.33,True
3751,'Widget 3751',88.67,False
3752,'Widget 3752',91.0,True
3753,'Widget 3753',93.33,False
3754,'Widget 3754',95.67,True
3755,'Widget 3755',98.0,False
3756,'Widget 3756',100.33,True
3757,'Widget 3757',102.67,False
3758,'Widget 3758',105.0,True
3759,'Widget 3759',107.33,False
3760,'Widget 3760',109.67,True
3761,'Widget 3761',112.0,False
3762,'Widget 3762',114.33,True
3763,'Widget 3763',116.67,False
3764,'Widget 3764',119.0,True
3765,'Widget 3765',121.33,False
3766,'Widget 3766',123.67,True
3767,'Widget 3767',126.0,False
3768,'Widget 3768',128.33,True
3769,'Widget 3769',130.67,False
3770,'Widget 3770',133.0,True
3771,'Widget 3771',135.33,False
3772,'Widget 3772',137.67,True
3773,'Widget 3773',140.0,False
3774,'Widget 3774',142.33,True
3775,'Widget 3775',144.67,False
3776,'Widget 3776',147.0,True
3777,'Widget 3777',149.33,False
3778,'Widget 3778',151.67,True
3779,'Widget 3779',154.0,False
3780,'Widget 3780',156.33,True
3781,'Widget 3781',158.67,False
3782,'Widget 3782',161.0,True
3783,'Widget 3783',163.33,False
3784,'Widget 3784',165.67,True
3785,'Widget 3785',168.0,False
3786,'Widget 3786',3.67,True
3787,'Widget 3787',6.0,False
3788,'Widget 3788',8.33,True
3789,'Widget 3789',10.67,False
3790,'Widget 3790',13.0,True
3791,'Widget 3791',15.33,False
3792,'Widget 3792',17.67,True
3793,'Widget 3793',20.0,False
3794,'Widget 3794',22.33,True
3795,'Widget 3795',24.67,False
3796,'Widget 3796',27.0,True
3797,'Widget 3797',29.33,False
3798,'Widget 3798',31.67,True
3799,'Widget 3799',34.0,False
3800,'Widget 3800',36.33,True
3801,'Widget 3801',38.67,False
3802,'Widget 3802',41.0,True
3803,'Widget 3803',43.33,False
3804,'Widget 3804',45.67,True
3805,'Widget 3805',48.0,False
3806,'Widget 3806',50.33,True
3807,'Widget 3807',52.67,False
3808,'Widget 3808',55.0,True
3809,'Widget 3809',57.33,False
3810,'Widget 3810',59.67,True
3811,'Widget 3811',62.0,False
3812,'Widget 3812',64.33,True
3813,'Widget 3813',66.67,False
3814,'Widget 3814',69.0,True
3815,'Widget 3815',71.33,False
3816,'Widget 3816',73.67,True
3817,'Widget 3817',76.0,False
3818,'Widget 3818',78.33,True
3819,'Widget 3819',80.67,False
3820,'Widget 3820',83.0,True
3821,'Widget 3821',85.33,False
3822,'Widget 3822',87.67,True
3823,'Widget 3823',90.0,False
3824,'Widget 3824',92.33,True
3825,'Widget 3825',94.67,False
3826,'Widget 3826',97.0,True
3827,'Widget 3827',99.33,False
3828,'Widget 3828',101.67,True
3829,'Widget 3829',104.0,False
3830,'Widget 3830',106.33,True
3831,'Widget 3831',108.67,False
3832,'Widget 3832',111.0,True
3833,'Widget 3833',113.33,False
3834,'Widget 3834',115.67,True
3835,'Widget 3835',118.0,False
3836,'Widget 3836',120.33,True
3837,'Widget 3837',122.67,False
3838,'Widget 3838',125.0,True
3839,'Widget 3839',127.33,False
3840,'Widget 3840',129.67,True
3841,'Widget 3841',132.0,False
3842,'Widget 3842',134.33,True
3843,'Widget 3843',136.67,False
3844,'Widget 3844',139.0,True
3845,'Widget 3845',141.33,False
3846,'Widget 3846',143.67,True
3847,'Widget 3847',146.0,False
3848,'Widget 3848',148.33,True
3849,'Widget 3849',150.67,False
3850,'Widget 3850',153.0,True
3851,'Widget 3851',155.33,False
3852,'Widget 3852',157.67,True
3853,'Widget 3853',160.0,False
3854,'Widget 3854',162.33,True
3855,'Widget 3855',164.67,False
3856,'Widget 3856',167.0,True
3857,'Widget 3857',169.33,False
3858,'Widget 3858',5.0,True
3859,'Widget 3859',7.33,False
3860,'Widget 3860',9.67,True
3861,'Widget 3861',12.0,False
3862,'Widget 3862',14.33,True
3863,'Widget 3863',16.67,False
3864,'Widget 3864',19.0,True
3865,'Widget 3865',21.33,False
3866,'Widget 3866',23.67,True
3867,'Widget 3867',26.0,False
3868,'Widget 3868',28.33,True
3869,'Widget 3869',30.67,False
3870,'Widget 3870',33.0,True
3871,'Widget 3871',35.33,False
3872,'Widget 3872',37.67,True
3873,'Widget 3873',40.0,False
3874,'Widget 3874',42.33,True
3875,'Widget 3875',44.67,False
3876,'Widget 3876',47.0,True
3877,'Widget 3877',49.33,False
3878,'Widget 3878',51.67,True
3879,'Widget 3879',54.0,False
3880,'Widget 3880',56.33,True
3881,'Widget 3881',58.67,False
3882,'Widget 3882',61.0,True
3883,'Widget 3883',63.33,False
3884,'Widget 3884',65.67,True
3885,'Widget 3885',68.0,False
3886,'Widget 3886',70.33,True
3887,'Widget 3887',72.67,False
3888,'Widget 3888',75.0,True
3889,'Widget 3889',77.33,False
3890,'Widget 3890',79.67,True
3891,'Widget 3891',82.0,False
3892,'Widget 3892',84.33,True
3893,'Widget 3893',86.67,False
3894,'Widget 3894',89.0,True
3895,'Widget 3895',91.33,False
3896,'Widget 3896',93.67,True
3897,'Widget 3897',96.0,False
3898,'Widget 3898',98.33,True
3899,'Widget 3899',100.67,False
3900,'Widget 3900',103.0,True
3901,'Widget 3901',105.33,False
3902,'Widget 3902',107.67,True
3903,'Widget 3903',110.0,False
3904,'Widget 3904',112.33,True
3905,'Widget 3905',114.67,False
3906,'Widget 3906',117.0,True
3907,'Widget 3907',119.33,False
3908,'Widget 3908',121.67,True
3909,'Widget 3909',124.0,False
3910,'Widget 3910',126.33,True
3911,'Widget 3911',128.67,False
3912,'Widget 3912',131.0,True
3913,'Widget 3913',133.33,False
3914,'Widget 3914',135.67,True
3915,'Widget 3915',138.0,False
3916,'Widget 3916',140.33,True
3917,'Widget 3917',142.67,False
3918,'Widget 3918',145.0,True
3919,'Widget 3919',147.33,False
3920,'Widget 3920',149.67,True
3921,'Widget 3921',152.0,False
3922,'Widget 3922',154.33,True
3923,'Widget 3923',156.67,False
3924,'Widget 3924',159.0,True
3925,'Widget 3925',161.33,False
3926,'Widget 3926',163.67,True
3927,'Widget 3927',166.0,False
3928,'Widget 3928',168.33,True
3929,'Widget 3929',4.0,False
3930,'Widget 3930',6.33,True
3931,'Widget 3931',8.67,False
3932,'Widget 3932',11.0,True
3933,'Widget 3933',13.33,False
3934,'Widget 3934',15.67,True
3935,'Widget 3935',18.0,False
3936,'Widget 3936',20.33,True
3937,'Widget 3937',22.67,False
3938,'Widget 3938',25.0,True
3939,'Widget 3939',27.33,False
3940,'Widget 3940',29.67,True
3941,'Widget 3941',32.0,False
3942,'Widget 3942',34.33,True
3943,'Widget 3943',36.67,False
3944,'Widget 3944',39.0,True
3945,'Widget 3945',41.33,False
3946,'Widget 3946',43.67,True
3947,'Widget 3947',46.0,False
3948,'Widget 3948',48.33,True
3949,'Widget 3949',50.67,False
3950,'Widget 3950',53.0,True
3951,'Widget 3951',55.33,False
3952,'Widget 3952',57.67,True
3953,'Widget 3953',60.0,False
3954,'Widget 3954',62.33,True
3955,'Widget 3955',64.67,False
3956,'Widget 3956',67.0,True
3957,'Widget 3957',69.33,False
3958,'Widget 3958',71.67,True
3959,'Widget 3959',74.0,False
3960,'Widget 3960',76.33,True
3961,'Widget 3961',78.67,False
3962,'Widget 3962',81.0,True
3963,'Widget 3963',83.33,False
3964,'Widget 3964',85.67,True
3965,'Widget 3965',88.0,False
3966,'Widget 3966',90.33,True
3967,'Widget 3967',92.67,False
3968,'Widget 3968',95.0,True
3969,'Widget 3969',97.33,False
3970,'Widget 3970',99.67,True
3971,'Widget 3971',102.0,False
3972,'Widget 3972',104.33,True
3973,'Widget 3973',106.67,False
3974,'Widget 3974',109.0,True
3975,'Widget 3975',111.33,False
3976,'Widget 3976',113.67,True
3977,'Widget 3977',116.0,False
3978,'Widget 3978',118.33,True
3979,'Widget 3979',120.67,False
3980,'Widget 3980',123.0,True
3981,'Widget 3981',125.33,False
3982,'Widget 3982',127.67,True
3983,'Widget 3983',130.0,False
3984,'Widget 3984',132.33,True
3985,'Widget 3985',134.67,False
3986,'Widget 3986',137.0,True
3987,'Widget 3987',139.33,False
3988,'Widget 3988',141.67,True
3989,'Widget 3989',144.0,False
3990,'Widget 3990',146.33,True
3991,'Widget 3991',148.67,False
3992,'Widget 3992',151.0,True
3993,'Widget 3993',153.33,False
3994,'Widget 3994',155.67,True
3995,'Widget 3995',158.0,False
3996,'Widget 3996',160.33,True
3997,'Widget 3997',162.67,False
3998,'Widget 3998',165.0,True
3999,'Widget 3999',167.33,False
4000,'Widget 4000',3.0,True
4001,'Widget 4001',5.33,False
4002,'Widget 4002',7.67,True
4003,'Widget 4003',10.0,False
4004,'Widget 4004',12.33,True
4005,'Widget 4005',14.67,False
4006,'Widget 4006',17.0,True
4007,'Widget 4007',19.33,False
4008,'Widget 4008',21.67,True
4009,'Widget 4009',24.0,False
4010,'Widget 4010',26.33,True
4011,'Widget 4011',28.67,False
4012,'Widget 4012',31.0,True
4013,'Widget 4013',33.33,False
4014,'Widget 4014',35.67,True
4015,'Widget 4015',38.0,False
4016,'Widget 4016',40.33,True
4017,'Widget 4017',42.67,False
4018,'Widget 4018',45.0,True
4019,'Widget 4019',47.33,False
4020,'Widget 4020',49.67,True
4021,'Widget 4021',52.0,False
4022,'Widget 4022',54.33,True
4023,'Widget 4023',56.67,False
4024,'Widget 4024',59.0,True
4025,'Widget 4025',61.33,False
4026,'Widget 4026',63.67,True
4027,'Widget 4027',66.0,False
4028,'Widget 4028',68.33,True
4029,'Widget 4029',70.67,False
4030,'Widget 4030',73.0,True
4031,'Widget 4031',75.33,False
4032,'Widget 4032',77.67,True
4033,'Widget 4033',80.0,False
4034,'Widget 4034',82.33,True
4035,'Widget 4035',84.67,False
4036,'Widget 4036',87.0,True
4037,'Widget 4037',89.33,False
4038,'Widget 4038',91.67,True
4039,'Widget 4039',94.0,False
4040,'Widget 4040',96.33,True
4041,'Widget 4041',98.67,False
4042,'Widget 4042',101.0,True
4043,'Widget 4043',103.33,False
4044,'Widget 4044',105.67,True
4045,'Widget 4045',108.0,False
4046,'Widget 4046',110.33,True
4047,'Widget 4047',112.67,False
4048,'Widget 4048',115.0,True
4049,'Widget 4049',117.33,False
4050,'Widget 4050',119.67,True
4051,'Widget 4051',122.0,False
4052,'Widget 4052',124.33,True
4053,'Widget 4053',126.67,False
4054,'Widget 4054',129.0,True
4055,'Widget 4055',131.33,False
4056,'Widget 4056',133.67,True
4057,'Widget 4057',136.0,False
4058,'Widget 4058',138.33,True
4059,'Widget 4059',140.67,False
4060,'Widget 4060',143.0,True
4061,'Widget 4061',145.33,False
4062,'Widget 4062',147.67,True
4063,'Widget 4063',150.0,False
4064,'Widget 4064',152.33,True
4065,'Widget 4065',154.67,False
4066,'Widget 4066',157.0,True
4067,'Widget 4067',159.33,False
4068,'Widget 4068',161.67,True
4069,'Widget 4069',164.0,False
4070,'Widget 4070',166.33,True
4071,'Widget 4071',168.67,False
4072,'Widget 4072',4.33,True
4073,'Widget 4073',6.67,False
4074,'Widget 4074',9.0,True
4075,'Widget 4075',11.33,False
4076,'Widget 4076',13.67,True
4077,'Widget 4077',16.0,False
4078,'Widget 4078',18.33,True
4079,'Widget 4079',20.67,False
4080,'Widget 4080',23.0,True
4081,'Widget 4081',25.33,False
4082,'Widget 4082',27.67,True
4083,'Widget 4083',30.0,False
4084,'Widget 4084',32.33,True
4085,'Widget 4085',34.67,False
4086,'Widget 4086',37.0,True
4087,'Widget 4087',39.33,False
4088,'Widget 4088',41.67,True
4089,'Widget 4089',44.0,False
4090,'Widget 4090',46.33,True
4091,'Widget 4091',48.67,False
4092,'Widget 4092',51.0,True
4093,'Widget 4093',53.33,False
4094,'Widget 4094',55.67,True
4095,'Widget 4095',58.0,False
4096,'Widget 4096',60.33,True
4097,'Widget 4097',62.67,False
4098,'Widget 4098',65.0,True
4099,'Widget 4099',67.33,False
4100,'Widget 4100',69.67,True
4101,'Widget 4101',72.0,False
4102,'Widget 4102',74.33,True
4103,'Widget 4103',76.67,False
4104,'Widget 4104',79.0,True
4105,'Widget 4105',81.33,False
4106,'Widget 4106',83.67,True
4107,'Widget 4107',86.0,False
4108,'Widget 4108',88.33,True
4109,'Widget 4109',90.67,False
4110,'Widget 4110',93.0,True
4111,'Widget 4111',95.33,False
4112,'Widget 4112',97.67,True
4113,'Widget 4113',100.0,False
4114,'Widget 4114',102.33,True
4115,'Widget 4115',104.67,False
4116,'Widget 4116',107.0,True
4117,'Widget 4117',109.33,False
4118,'Widget 4118',111.67,True
4119,'Widget 4119',114.0,False
4120,'Widget 4120',116.33,True
4121,'Widget 4121',118.67,False
4122,'Widget 4122',121.0,True
4123,'Widget 4123',123.33,False
4124,'Widget 4124',125.67,True
4125,'Widget 4125',128.0,False
4126,'Widget 4126',130.33,True
4127,'Widget 4127',132.67,False
4128,'Widget 4128',135.0,True
4129,'Widget 4129',137.33,False
4130,'Widget 4130',139.67,True
4131,'Widget 4131',142.0,False
4132,'Widget 4132',144.33,True
4133,'Widget 4133',146.67,False
4134,'Widget 4134',149.0,True
4135,'Widget 4135',151.33,False
4136,'Widget 4136',153.67,True
4137,'Widget 4137',156.0,False
4138,'Widget 4138',158.33,True
4139,'Widget 4139',160.67,False
4140,'Widget 4140',163.0,True
4141,'Widget 4141',165.33,False
4142,'Widget 4142',167.67,True
4143,'Widget 4143',3.33,False
4144,'Widget 4144',5.67,True
4145,'Widget 4145',8.0,False
4146,'Widget 4146',10.33,True
4147,'Widget 4147',12.67,False
4148,'Widget 4148',15.0,True
4149,'Widget 4149',17.33,False
4150,'Widget 4150',19.67,True
4151,'Widget 4151',22.0,False
4152,'Widget 4152',24.33,True
4153,'Widget 4153',26.67,False
4154,'Widget 4154',29.0,True
4155,'Widget 4155',31.33,False
4156,'Widget 4156',33.67,True
4157,'Widget 4157',36.0,False
4158,'Widget 4158',38.33,True
4159,'Widget 4159',40.67,False
4160,'Widget 4160',43.0,True
4161,'Widget 4161',45.33,False
4162,'Widget 4162',47.67,True
4163,'Widget 4163',50.0,False
4164,'Widget 4164',52.33,True
4165,'Widget 4165',54.67,False
4166,'Widget 4166',57.0,True
4167,'Widget 4167',59.33,False
4168,'Widget 4168',61.67,True
4169,'Widget 4169',64.0,False
4170,'Widget 4170',66.33,True
4171,'Widget 4171',68.67,False
4172,'Widget 4172',71.0,True
4173,'Widget 4173',73.33,False
4174,'Widget 4174',75.67,True
4175,'Widget 4175',78.0,False
4176,'Widget 4176',80.33,True
4177,'Widget 4177',82.67,False
4178,'Widget 4178',85.0,True
4179,'Widget 4179',87.33,False
4180,'Widget 4180',89.67,True
4181,'Widget 4181',92.0,False
4182,'Widget 4182',94.33,True
4183,'Widget 4183',96.67,False
4184,'Widget 4184',99.0,True
4185,'Widget 4185',101.33,False
4186,'Widget 4186',103.67,True
4187,'Widget 4187',106.0,False
4188,'Widget 4188',108.33,True
4189,'Widget 4189',110.67,False
4190,'Widget 4190',113.0,True
4191,'Widget 4191',115.33,False
4192,'Widget 4192',117.67,True
4193,'Widget 4193',120.0,False
4194,'Widget 4194',122.33,True
4195,'Widget 4195',124.67,False
4196,'Widget 4196',127.0,True
4197,'Widget 4197',129.33,False
4198,'Widget 4198',131.67,True
4199,'Widget 4199',134.0,False
4200,'Widget 4200',136.33,True
4201,'Widget 4201',138.67,False
4202,'Widget 4202',141.0,True
4203,'Widget 4203',143.33,False
4204,'Widget 4204',145.67,True
4205,'Widget 4205',148.0,False
4206,'Widget 4206',150.33,True
4207,'Widget 4207',152.67,False
4208,'Widget 4208',155.0,True
4209,'Widget 4209',157.33,False
4210,'Widget 4210',159.67,True
4211,'Widget 4211',162.0,False
4212,'Widget 4212',164.33,True
4213,'Widget 4213',166.67,False
4214,'Widget 4214',169.0,True
4215,'Widget 4215',4.67,False
4216,'Widget 4216',7.0,True
4217,'Widget 4217',9.33,False
4218,'Widget 4218',11.67,True
4219,'Widget 4219',14.0,False
4220,'Widget 4220',16.33,True
4221,'Widget 4221',18.67,False
4222,'Widget 4222',21.0,True
4223,'Widget 4223',23.33,False
4224,'Widget 4224',25.67,True
4225,'Widget 4225',28.0,False
4226,'Widget 4226',30.33,True
4227,'Widget 4227',32.67,False
4228,'Widget 4228',35.0,True
4229,'Widget 4229',37.33,False
4230,'Widget 4230',39.67,True
4231,'Widget 4231',42.0,False
4232,'Widget 4232',44.33,True
4233,'Widget 4233',46.67,False
4234,'Widget 4234',49.0,True
4235,'Widget 4235',51.33,False
4236,'Widget 4236',53.67,True
4237,'Widget 4237',56.0,False
4238,'Widget 4238',58.33,True
4239,'Widget 4239',60.67,False
4240,'Widget 4240',63.0,True
4241,'Widget 4241',65.33,False
4242,'Widget 4242',67.67,True
4243,'Widget 4243',70.0,False
4244,'Widget 4244',72.33,True
4245,'Widget 4245',74.67,False
4246,'Widget 4246',77.0,True
4247,'Widget 4247',79.33,False
4248,'Widget 4248',81.67,True
4249,'Widget 4249',84.0,False
4250,'Widget 4250',86.33,True
4251,'Widget 4251',88.67,False
4252,'Widget 4252',91.0,True
4253,'Widget 4253',93.33,False
4254,'Widget 4254',95.67,True
4255,'Widget 4255',98.0,False
4256,'Widget 4256',100.33,True
4257,'Widget 4257',102.67,False
4258,'Widget 4258',105.0,True
4259,'Widget 4259',107.33,False
4260,'Widget 4260',109.67,True
4261,'Widget 4261',112.0,False
4262,'Widget 4262',114.33,True
4263,'Widget 4263',116.67,False
4264,'Widget 4264',119.0,True
4265,'Widget 4265',121.33,False
4266,'Widget 4266',123.67,True
4267,'Widget 4267',126.0,False
4268,'Widget 4268',128.33,True
4269,'Widget 4269',130.67,False
4270,'Widget 4270',133.0,True
4271,'Widget 4271',135.33,False
4272,'Widget 4272',137.67,True
4273,'Widget 4273',140.0,False
4274,'Widget 4274',142.33,True
4275,'Widget 4275',144.67,False
4276,'Widget 4276',147.0,True
4277,'Widget 4277',149.33,False
4278,'Widget 4278',151.67,True
4279,'Widget 4279',154.0,False
4280,'Widget 4280',156.33,True
4281,'Widget 4281',158.67,False
4282,'Widget 4282',161.0,True
4283,'Widget 4283',163.33,False
4284,'Widget 4284',165.67,True
4285,'Widget 4285',168.0,False
4286,'Widget 4286',3.67,True
4287,'Widget 4287',6.0,False
4288,'Widget 4288',8.33,True
4289,'Widget 4289',10.67,False
4290,'Widget 4290',13.0,True
4291,'Widget 4291',15.33,False
4292,'Widget 4292',17.67,True
4293,'Widget 4293',20.0,False
4294,'Widget 4294',22.33,True
4295,'Widget 4295',24.67,False
4296,'Widget 4296',27.0,True
4297,'Widget 4297',29.33,False
4298,'Widget 4298',31.67,True
4299,'Widget 4299',34.0,False
4300,'Widget 4300',36.33,True
4301,'Widget 4301',38.67,False
4302,'Widget 4302',41.0,True
4303,'Widget 4303',43.33,False
4304,'Widget 4304',45.67,True
4305,'Widget 4305',48.0,False
4306,'Widget 4306',50.33,True
4307,'Widget 4307',52.67,False
4308,'Widget 4308',55.0,True
4309,'Widget 4309',57.33,False
4310,'Widget 4310',59.67,True
4311,'Widget 4311',62.0,False
4312,'Widget 4312',64.33,True
4313,'Widget 4313',66.67,False
4314,'Widget 4314',69.0,True
4315,'Widget 4315',71.33,False
4316,'Widget 4316',73.67,True
4317,'Widget 4317',76.0,False
4318,'Widget 4318',78.33,True
4319,'Widget 4319',80.67,False
4320,'Widget 4320',83.0,True
4321,'Widget 4321',85.33,False
4322,'Widget 4322',87.67,True
4323,'Widget 4323',90.0,False
4324,'Widget 4324',92.33,True
4325,'Widget 4325',94.67,False
4326,'Widget 4326',97.0,True
4327,'Widget 4327',99.33,False
4328,'Widget 4328',101.67,True
4329,'Widget 4329',104.0,False
4330,'Widget 4330',106.33,True
4331,'Widget 4331',108.67,False
4332,'Widget 4332',111.0,True
4333,'Widget 4333',113.33,False
4334,'Widget 4334',115.67,True
4335,'Widget 4335',118.0,False
4336,'Widget 4336',120.33,True
4337,'Widget 4337',122.67,False
4338,'Widget 4338',125.0,True
4339,'Widget 4339',127.33,False
4340,'Widget 4340',129.67,True
4341,'Widget 4341',132.0,False
4342,'Widget 4342',134.33,True
4343,'Widget 4343',136.67,False
4344,'Widget 4344',139.0,True
4345,'Widget 4345',141.33,False
4346,'Widget 4346',143.67,True
4347,'Widget 4347',146.0,False
4348,'Widget 4348',148.33,True
4349,'Widget 4349',150.67,False
4350,'Widget 4350',153.0,True
4351,'Widget 4351',155.33,False
4352,'Widget 4352',157.67,True
4353,'Widget 4353',160.0,False
4354,'Widget 4354',162.33,True
4355,'Widget 4355',164.67,False
4356,'Widget 4356',167.0,True
4357,'Widget 4357',169.33,False
4358,'Widget 4358',5.0,True
4359,'Widget 4359',7.33,False
4360,'Widget 4360',9.67,True
4361,'Widget 4361',12.0,False
4362,'Widget 4362',14.33,True
4363,'Widget 4363',16.67,False
4364,'Widget 4364',19.0,True
4365,'Widget 4365',21.33,False
4366,'Widget 4366',23.67,True
4367,'Widget 4367',26.0,False
4368,'Widget 4368',28.33,True
4369,'Widget 4369',30.67,False
4370,'Widget 4370',33.0,True
4371,'Widget 4371',35.33,False
4372,'Widget 4372',37.67,True
4373,'Widget 4373',40.0,False
4374,'Widget 4374',42.33,True
4375,'Widget 4375',44.67,False
4376,'Widget 4376',47.0,True
4377,'Widget 4377',49.33,False
4378,'Widget 4378',51.67,True
4379,'Widget 4379',54.0,False
4380,'Widget 4380',56.33,True
4381,'Widget 4381',58.67,False
4382,'Widget 4382',61.0,True
4383,'Widget 4383',63.33,False
4384,'Widget 4384',65.67,True
4385,'Widget 4385',68.0,False
4386,'Widget 4386',70.33,True
4387,'Widget 4387',72.67,False
4388,'Widget 4388',75.0,True
4389,'Widget 4389',77.33,False
4390,'Widget 4390',79.67,True
4391,'Widget 4391',82.0,False
4392,'Widget 4392',84.33,True
4393,'Widget 4393',86.67,False
4394,'Widget 4394',89.0,True
4395,'Widget 4395',91.33,False
4396,'Widget 4396',93.67,True
4397,'Widget 4397',96.0,False
4398,'Widget 4398',98.33,True
4399,'Widget 4399',100.67,False
4400,'Widget 4400',103.0,True
4401,'Widget 4401',105.33,False
4402,'Widget 4402',107.67,True
4403,'Widget 4403',110.0,False
4404,'Widget 4404',112.33,True
4405,'Widget 4405',114.67,False
4406,'Widget 4406',117.0,True
4407,'Widget 4407',119.33,False
4408,'Widget 4408',121.67,True
4409,'Widget 4409',124.0,False
4410,'Widget 4410',126.33,True
4411,'Widget 4411',128.67,False
4412,'Widget 4412',131.0,True
4413,'Widget 4413',133.33,False
4414,'Widget 4414',135.67,True
4415,'Widget 4415',138.0,False
4416,'Widget 4416',140.33,True
4417,'Widget 4417',142.67,False
4418,'Widget 4418',145.0,True
4419,'Widget 4419',147.33,False
4420,'Widget 4420',149.67,True
4421,'Widget 4421',152.0,False
4422,'Widget 4422',154.33,True
4423,'Widget 4423',156.67,False
4424,'Widget 4424',159.0,True
4425,'Widget 4425',161.33,False
4426,'Widget 4426',163.67,True
4427,'Widget 4427',166.0,False
4428,'Widget 4428',168.33,True
4429,'Widget 4429',4.0,False
4430,'Widget 4430',6.33,True
4431,'Widget 4431',8.67,False
4432,'Widget 4432',11.0,True
4433,'Widget 4433',13.33,False
4434,'Widget 4434',15.67,True
4435,'Widget 4435',18.0,False
4436,'Widget 4436',20.33,True
4437,'Widget 4437',22.67,False
4438,'Widget 4438',25.0,True
4439,'Widget 4439',27.33,False
4440,'Widget 4440',29.67,True
4441,'Widget 4441',32.0,False
4442,'Widget 4442',34.33,True
4443,'Widget 4443',36.67,False
4444,'Widget 4444',39.0,True
4445,'Widget 4445',41.33,False
4446,'Widget 4446',43.67,True
4447,'Widget 4447',46.0,False
4448,'Widget 4448',48.33,True
4449,'Widget 4449',50.67,False
4450,'Widget 4450',53.0,True
4451,'Widget 4451',55.33,False
4452,'Widget 4452',57.67,True
4453,'Widget 4453',60.0,False
4454,'Widget 4454',62.33,True
4455,'Widget 4455',64.67,False
4456,'Widget 4456',67.0,True
4457,'Widget 4457',69.33,False
4458,'Widget 4458',71.67,True
4459,'Widget 4459',74.0,False
4460,'Widget 4460',76.33,True
4461,'Widget 4461',78.67,False
4462,'Widget 4462',81.0,True
4463,'Widget 4463',83.33,False
4464,'Widget 4464',85.67,True
4465,'Widget 4465',88.0,False
4466,'Widget 4466',90.33,True
4467,'Widget 4467',92.67,False
4468,'Widget 4468',95.0,True
4469,'Widget 4469',97.33,False
4470,'Widget 4470',99.67,True
4471,'Widget 4471',102.0,False
4472,'Widget 4472',104.33,True
4473,'Widget 4473',106.67,False
4474,'Widget 4474',109.0,True
4475,'Widget 4475',111.33,False
4476,'Widget 4476',113.67,True
4477,'Widget 4477',116.0,False
4478,'Widget 4478',118.33,True
4479,'Widget 4479',120.67,False
4480,'Widget 4480',123.0,True
4481,'Widget 4481',125.33,False
4482,'Widget 4482',127.67,True
4483,'Widget 4483',130.0,False
4484,'Widget 4484',132.33,True
4485,'Widget 4485',134.67,False
4486,'Widget 4486',137.0,True
4487,'Widget 4487',139.33,False
4488,'Widget 4488',141.67,True
4489,'Widget 4489',144.0,False
4490,'Widget 4490',146.33,True
4491,'Widget 4491',148.67,False
4492,'Widget 4492',151.0,True
4493,'Widget 4493',153.33,False
4494,'Widget 4494',155.67,True
4495,'Widget 4495',158.0,False
4496,'Widget 4496',160.33,True
4497,'Widget 4497',162.67,False
4498,'Widget 4498',165.0,True
4499,'Widget 4499',167.33,False
4500,'Widget 4500',3.0,True
4501,'Widget 4501',5.33,False
4502,'Widget 4502',7.67,True
4503,'Widget 4503',10.0,False
4504,'Widget 4504',12.33,True
4505,'Widget 4505',14.67,False
4506,'Widget 4506',17.0,True
4507,'Widget 4507',19.33,False
4508,'Widget 4508',21.67,True
4509,'Widget 4509',24.0,False
4510,'Widget 4510',26.33,True
4511,'Widget 4511',28.67,False
4512,'Widget 4512',31.0,True
4513,'Widget 4513',33.33,False
4514,'Widget 4514',35.67,True
4515,'Widget 4515',38.0,False
4516,'Widget 4516',40.33,True
4517,'Widget 4517',42.67,False
4518,'Widget 4518',45.0,True
4519,'Widget 4519',47.33,False
4520,'Widget 4520',49.67,True
4521,'Widget 4521',52.0,False
4522,'Widget 4522',54.33,True
4523,'Widget 4523',56.67,False
4524,'Widget 4524',59.0,True
4525,'Widget 4525',61.33,False
4526,'Widget 4526',63.67,True
4527,'Widget 4527',66.0,False
4528,'Widget 4528',68.33,True
4529,'Widget 4529',70.67,False
4530,'Widget 4530',73.0,True
4531,'Widget 4531',75.33,False
4532,'Widget 4532',77.67,True
4533,'Widget 4533',80.0,False
4534,'Widget 4534',82.33,True
4535,'Widget 4535',84.67,False
4536,'Widget 4536',87.0,True
4537,'Widget 4537',89.33,False
4538,'Widget 4538',91.67,True
4539,'Widget 4539',94.0,False
4540,'Widget 4540',96.33,True
4541,'Widget 4541',98.67,False
4542,'Widget 4542',101.0,True
4543,'Widget 4543',103.33,False
4544,'Widget 4544',105.67,True
4545,'Widget 4545',108.0,False
4546,'Widget 4546',110.33,True
4547,'Widget 4547',112.67,False
4548,'Widget 4548',115.0,True
4549,'Widget 4549',117.33,False
4550,'Widget 4550',119.67,True
4551,'Widget 4551',122.0,False
4552,'Widget 4552',124.33,True
4553,'Widget 4553',126.67,False
4554,'Widget 4554',129.0,True
4555,'Widget 4555',131.33,False
4556,'Widget 4556',133.67,True
4557,'Widget 4557',136.0,False
4558,'Widget 4558',138.33,True
4559,'Widget 4559',140.67,False
4560,'Widget 4560',143.0,True
4561,'Widget 4561',145.33,False
4562,'Widget 4562',147.67,True
4563,'Widget 4563',150.0,False
4564,'Widget 4564',152.33,True
4565,'Widget 4565',154.67,False
4566,'Widget 4566',157.0,True
4567,'Widget 4567',159.33,False
4568,'Widget 4568',161.67,True
4569,'Widget 4569',164.0,False
4570,'Widget 4570',166.33,True
4571,'Widget 4571',168.67,False
4572,'Widget 4572',4.33,True
4573,'Widget 4573',6.67,False
4574,'Widget 4574',9.0,True
4575,'Widget 4575',11.33,False
4576,'Widget 4576',13.67,True
4577,'Widget 4577',16.0,False
4578,'Widget 4578',18.33,True
4579,'Widget 4579',20.67,False
4580,'Widget 4580',23.0,True
4581,'Widget 4581',25.33,False
4582,'Widget 4582',27.67,True
4583,'Widget 4583',30.0,False
4584,'Widget 4584',32.33,True
4585,'Widget 4585',34.67,False
4586,'Widget 4586',37.0,True
4587,'Widget 4587',39.33,False
4588,'Widget 4588',41.67,True
4589,'Widget 4589',44.0,False
4590,'Widget 4590',46.33,True
4591,'Widget 4591',48.67,False
4592,'Widget 4592',51.0,True
4593,'Widget 4593',53.33,False
4594,'Widget 4594',55.67,True
4595,'Widget 4595',58.0,False
4596,'Widget 4596',60.33,True
4597,'Widget 4597',62.67,False
4598,'Widget 4598',65.0,True
4599,'Widget 4599',67.33,False
4600,'Widget 4600',69.67,True
4601,'Widget 4601',72.0,False
4602,'Widget 4602',74.33,True
4603,'Widget 4603',76.67,False
4604,'Widget 4604',79.0,True
4605,'Widget 4605',81.33,False
4606,'Widget 4606',83.67,True
4607,'Widget 4607',86.0,False
4608,'Widget 4608',88.33,True
4609,'Widget 4609',90.67,False
4610,'Widget 4610',93.0,True
4611,'Widget 4611',95.33,False
4612,'Widget 4612',97.67,True
4613,'Widget 4613',100.0,False
4614,'Widget 4614',102.33,True
4615,'Widget 4615',104.67,False
4616,'Widget 4616',107.0,True
4617,'Widget 4617',109.33,False
4618,'Widget 4618',111.67,True
4619,'Widget 4619',114.0,False
4620,'Widget 4620',116.33,True
4621,'Widget 4621',118.67,False
4622,'Widget 4622',121.0,True
4623,'Widget 4623',123.33,False
4624,'Widget 4624',125.67,True
4625,'Widget 4625',128.0,False
4626,'Widget 4626',130.33,True
4627,'Widget 4627',132.67,False
4628,'Widget 4628',135.0,True
4629,'Widget 4629',137.33,False
4630,'Widget 4630',139.67,True
4631,'Widget 4631',142.0,False
4632,'Widget 4632',144.33,True
4633,'Widget 4633',146.67,False
4634,'Widget 4634',149.0,True
4635,'Widget 4635',151.33,False
4636,'Widget 4636',153.67,True
4637,'Widget 4637',156.0,False
4638,'Widget 4638',158.33,True
4639,'Widget 4639',160.67,False
4640,'Widget 4640',163.0,True
4641,'Widget 4641',165.33,False
4642,'Widget 4642',167.67,True
4643,'Widget 4643',3.33,False
4644,'Widget 4644',5.67,True
4645,'Widget 4645',8.0,False
4646,'Widget 4646',10.33,True
4647,'Widget 4647',12.67,False
4648,'Widget 4648',15.0,True
4649,'Widget 4649',17.33,False
4650,'Widget 4650',19.67,True
4651,'Widget 4651',22.0,False
4652,'Widget 4652',24.33,True
4653,'Widget 4653',26.67,False
4654,'Widget 4654',29.0,True
4655,'Widget 4655',31.33,False
4656,'Widget 4656',33.67,True
4657,'Widget 4657',36.0,False
4658,'Widget 4658',38.33,True
4659,'Widget 4659',40.67,False
4660,'Widget 4660',43.0,True
4661,'Widget 4661',45.33,False
4662,'Widget 4662',47.67,True
4663,'Widget 4663',50.0,False
4664,'Widget 4664',52.33,True
4665,'Widget 4665',54.67,False
4666,'Widget 4666',57.0,True
4667,'Widget 4667',59.33,False
4668,'Widget 4668',61.67,True
4669,'Widget 4669',64.0,False
4670,'Widget 4670',66.33,True
4671,'Widget 4671',68.67,False
4672,'Widget 4672',71.0,True
4673,'Widget 4673',73.33,False
4674,'Widget 4674',75.67,True
4675,'Widget 4675',78.0,False
4676,'Widget 4676',80.33,True
4677,'Widget 4677',82.67,False
4678,'Widget 4678',85.0,True
4679,'Widget 4679',87.33,False
4680,'Widget 4680',89.67,True
4681,'Widget 4681',92.0,False
4682,'Widget 4682',94.33,True
4683,'Widget 4683',96.67,False
4684,'Widget 4684',99.0,True
4685,'Widget 4685',101.33,False
4686,'Widget 4686',103.67,True
4687,'Widget 4687',106.0,False
4688,'Widget 4688',108.33,True
4689,'Widget 4689',110.67,False
4690,'Widget 4690',113.0,True
4691,'Widget 4691',115.33,False
4692,'Widget 4692',117.67,True
4693,'Widget 4693',120.0,False
4694,'Widget 4694',122.33,True
4695,'Widget 4695',124.67,False
4696,'Widget 4696',127.0,True
4697,'Widget 4697',129.33,False
4698,'Widget 4698',131.67,True
4699,'Widget 4699',134.0,False
4700,'Widget 4700',136.33,True
4701,'Widget 4701',138.67,False
4702,'Widget 4702',141.0,True
4703,'Widget 4703',143.33,False
4704,'Widget 4704',145.67,True
4705,'Widget 4705',148.0,False
4706,'Widget 4706',150.33,True
4707,'Widget 4707',152.67,False
4708,'Widget 4708',155.0,True
4709,'Widget 4709',157.33,False
4710,'Widget 4710',159.67,True
4711,'Widget 4711',162.0,False
4712,'Widget 4712',164.33,True
4713,'Widget 4713',166.67,False
4714,'Widget 4714',169.0,True
4715,'Widget 4715',4.67,False
4716,'Widget 4716',7.0,True
4717,'Widget 4717',9.33,False
4718,'Widget 4718',11.67,True
4719,'Widget 4719',14.0,False
4720,'Widget 4720',16.33,True
4721,'Widget 4721',18.67,False
4722,'Widget 4722',21.0,True
4723,'Widget 4723',23.33,False
4724,'Widget 4724',25.67,True
4725,'Widget 4725',28.0,False
4726,'Widget 4726',30.33,True
4727,'Widget 4727',32.67,False
4728,'Widget 4728',35.0,True
4729,'Widget 4729',37.33,False
4730,'Widget 4730',39.67,True
4731,'Widget 4731',42.0,False
4732,'Widget 4732',44.33,True
4733,'Widget 4733',46.67,False
4734,'Widget 4734',49.0,True
4735,'Widget 4735',51.33,False
4736,'Widget 4736',53.67,True
4737,'Widget 4737',56.0,False
4738,'Widget 4738',58.33,True
4739,'Widget 4739',60.67,False
4740,'Widget 4740',63.0,True
4741,'Widget 4741',65.33,False
4742,'Widget 4742',67.67,True
4743,'Widget 4743',70.0,False
4744,'Widget 4744',72.33,True
4745,'Widget 4745',74.67,False
4746,'Widget 4746',77.0,True
4747,'Widget 4747',79.33,False
4748,'Widget 4748',81.67,True
4749,'Widget 4749',84.0,False
4750,'Widget 4750',86.33,True
4751,'Widget 4751',88.67,False
4752,'Widget 4752',91.0,True
4753,'Widget 4753',93.33,False
4754,'Widget 4754',95.67,True
4755,'Widget 4755',98.0,False
4756,'Widget 4756',100.33,True
4757,'Widget 4757',102.67,False
4758,'Widget 4758',105.0,True
4759,'Widget 4759',107.33,False
4760,'Widget 4760',109.67,True
4761,'Widget 4761',112.0,False
4762,'Widget 4762',114.33,True
4763,'Widget 4763',116.67,False
4764,'Widget 4764',119.0,True
4765,'Widget 4765',121.33,False
4766,'Widget 4766',123.67,True
4767,'Widget 4767',126.0,False
4768,'Widget 4768',128.33,True
4769,'Widget 4769',130.67,False
4770,'Widget 4770',133.0,True
4771,'Widget 4771',135.33,False
4772,'Widget 4772',137.67,True
4773,'Widget 4773',140.0,False
4774,'Widget 4774',142.33,True
4775,'Widget 4775',144.67,False
4776,'Widget 4776',147.0,True
4777,'Widget 4777',149.33,False
4778,'Widget 4778',151.67,True
4779,'Widget 4779',154.0,False
4780,'Widget 4780',156.33,True
4781,'Widget 4781',158.67,False
4782,'Widget 4782',161.0,True
4783,'Widget 4783',163.33,False
4784,'Widget 4784',165.67,True
4785,'Widget 4785',168.0,False
4786,'Widget 4786',3.67,True
4787,'Widget 4787',6.0,False
4788,'Widget 4788',8.33,True
4789,'Widget 4789',10.67,False
4790,'Widget 4790',13.0,True
4791,'Widget 4791',15.33,False
4792,'Widget 4792',17.67,True
4793,'Widget 4793',20.0,False
4794,'Widget 4794',22.33,True
4795,'Widget 4795',24.67,False
4796,'Widget 4796',27.0,True
4797,'Widget 4797',29.33,False
4798,'Widget 4798',31.67,True
4799,'Widget 4799',34.0,False
4800,'Widget 4800',36.33,True
4801,'Widget 4801',38.67,False
4802,'Widget 4802',41.0,True
4803,'Widget 4803',43.33,False
4804,'Widget 4804',45.67,True
4805,'Widget 4805',48.0,False
4806,'Widget 4806',50.33,True
4807,'Widget 4807',52.67,False
4808,'Widget 4808',55.0,True
4809,'Widget 4809',57.33,False
4810,'Widget 4810',59.67,True
4811,'Widget 4811',62.0,False
4812,'Widget 4812',64.33,True
4813,'Widget 4813',66.67,False
4814,'Widget 4814',69.0,True
4815,'Widget 4815',71.33,False
4816,'Widget 4816',73.67,True
4817,'Widget 4817',76.0,False
4818,'Widget 4818',78.33,True
4819,'Widget 4819',80.67,False
4820,'Widget 4820',83.0,True
4821,'Widget 4821',85.33,False
4822,'Widget 4822',87.67,True
4823,'Widget 4823',90.0,False
4824,'Widget 4824',92.33,True
4825,'Widget 4825',94.67,False
4826,'Widget 4826',97.0,True
4827,'Widget 4827',99.33,False
4828,'Widget 4828',101.67,True
4829,'Widget 4829',104.0,False
4830,'Widget 4830',106.33,True
4831,'Widget 4831',108.67,False
4832,'Widget 4832',111.0,True
4833,'Widget 4833',113.33,False
4834,'Widget 4834',115.67,True
4835,'Widget 4835',118.0,False
4836,'Widget 4836',120.33,True
4837,'Widget 4837',122.67,False
4838,'Widget 4838',125.0,True
4839,'Widget 4839',127.33,False
4840,'Widget 4840',129.67,True
4841,'Widget 4841',132.0,False
4842,'Widget 4842',134.33,True
4843,'Widget 4843',136.67,False
4844,'Widget 4844',139.0,True
4845,'Widget 4845',141.33,False
4846,'Widget 4846',143.67,True
4847,'Widget 4847',146.0,False
4848,'Widget 4848',148.33,True
4849,'Widget 4849',150.67,False
4850,'Widget 4850',153.0,True
4851,'Widget 4851',155.33,False
4852,'Widget 4852',157.67,True
4853,'Widget 4853',160.0,False
4854,'Widget 4854',162.33,True
4855,'Widget 4855',164.67,False
4856,'Widget 4856',167.0,True
4857,'Widget 4857',169.33,False
4858,'Widget 4858',5.0,True
4859,'Widget 4859',7.33,False
4860,'Widget 4860',9.67,True
4861,'Widget 4861',12.0,False
4862,'Widget 4862',14.33,True
4863,'Widget 4863',16.67,False
4864,'Widget 4864',19.0,True
4865,'Widget 4865',21.33,False
4866,'Widget 4866',23.67,True
4867,'Widget 4867',26.0,False
4868,'Widget 4868',28.33,True
4869,'Widget 4869',30.67,False
4870,'Widget 4870',33.0,True
4871,'Widget 4871',35.33,False
4872,'Widget 4872',37.67,True
4873,'Widget 4873',40.0,False
4874,'Widget 4874',42.33,True
4875,'Widget 4875',44.67,False
4876,'Widget 4876',47.0,True
4877,'Widget 4877',49.33,False
4878,'Widget 4878',51.67,True
4879,'Widget 4879',54.0,False
4880,'Widget 4880',56.33,True
4881,'Widget 4881',58.67,False
4882,'Widget 4882',61.0,True
4883,'Widget 4883',63.33,False
4884,'Widget 4884',65.67,True
4885,'Widget 4885',68.0,False
4886,'Widget 4886',70.33,True
4887,'Widget 4887',72.67,False
4888,'Widget 4888',75.0,True
4889,'Widget 4889',77.33,False
4890,'Widget 4890',79.67,True
4891,'Widget 4891',82.0,False
4892,'Widget 4892',84.33,True
4893,'Widget 4893',86.67,False
4894,'Widget 4894',89.0,True
4895,'Widget 4895',91.33,False
4896,'Widget 4896',93.67,True
4897,'Widget 4897',96.0,False
4898,'Widget 4898',98.33,True
4899,'Widget 4899',100.67,False
4900,'Widget 4900',103.0,True
4901,'Widget 4901',105.33,False
4902,'Widget 4902',107.67,True
4903,'Widget 4903',110.0,False
4904,'Widget 4904',112.33,True
4905,'Widget 4905',114.67,False
4906,'Widget 4906',117.0,True
4907,'Widget 4907',119.33,False
4908,'Widget 4908',121.67,True
4909,'Widget 4909',124.0,False
4910,'Widget 4910',126.33,True
4911,'Widget 4911',128.67,False
4912,'Widget 4912',131.0,True
4913,'Widget 4913',133.33,False
4914,'Widget 4914',135.67,True
4915,'Widget 4915',138.0,False
4916,'Widget 4916',140.33,True
4917,'Widget 4917',142.67,False
4918,'Widget 4918',145.0,True
4919,'Widget 4919',147.33,False
4920,'Widget 4920',149.67,True
4921,'Widget 4921',152.0,False
4922,'Widget 4922',154.33,True
4923,'Widget 4923',156.67,False
4924,'Widget 4924',159.0,True
4925,'Widget 4925',161.33,False
4926,'Widget 4926',163.67,True
4927,'Widget 4927',166.0,False
4928,'Widget 4928',168.33,True
4929,'Widget 4929',4.0,False
4930,'Widget 4930',6.33,True
4931,'Widget 4931',8.67,False
4932,'Widget 4932',11.0,True
4933,'Widget 4933',13.33,False
4934,'Widget 4934',15.67,True
4935,'Widget 4935',18.0,False
4936,'Widget 4936',20.33,True
4937,'Widget 4937',22.67,False
4938,'Widget 4938',25.0,True
4939,'Widget 4939',27.33,False
4940,'Widget 4940',29.67,True
4941,'Widget 4941',32.0,False
4942,'Widget 4942',34.33,True
4943,'Widget 4943',36.67,False
4944,'Widget 4944',39.0,True
4945,'Widget 4945',41.33,False
4946,'Widget 4946',43.67,True
4947,'Widget 4947',46.0,False
4948,'Widget 4948',48.33,True
4949,'Widget 4949',50.67,False
4950,'Widget 4950',53.0,True
4951,'Widget 4951',55.33,False
4952,'Widget 4952',57.67,True
4953,'Widget 4953',60.0,False
4954,'Widget 4954',62.33,True
4955,'Widget 4955',64.67,False
4956,'Widget 4956',67.0,True
4957,'Widget 4957',69.33,False
4958,'Widget 4958',71.67,True
4959,'Widget 4959',74.0,False
4960,'Widget 4960',76.33,True
4961,'Widget 4961',78.67,False
4962,'Widget 4962',81.0,True
4963,'Widget 4963',83.33,False
4964,'Widget 4964',85.67,True
4965,'Widget 4965',88.0,False
4966,'Widget 4966',90.33,True
4967,'Widget 4967',92.67,False
4968,'Widget 4968',95.0,True
4969,'Widget 4969',97.33,False
4970,'Widget 4970',99.67,True
4971,'Widget 4971',102.0,False
4972,'Widget 4972',104.33,True
4973,'Widget 4973',106.67,False
4974,'Widget 4974',109.0,True
4975,'Widget 4975',111.33,False
4976,'Widget 4976',113.67,True
4977,'Widget 4977',116.0,False
4978,'Widget 4978',118.33,True
4979,'Widget 4979',120.67,False
4980,'Widget 4980',123.0,True
4981,'Widget 4981',125.33,False
4982,'Widget 4982',127.67,True
4983,'Widget 4983',130.0,False
4984,'Widget 4984',132.33,True
4985,'Widget 4985',134.67,False
4986,'Widget 4986',137.0,True
4987,'Widget 4987',139.33,False
4988,'Widget 4988',141.67,True
4989,'Widget 4989',144.0,False
4990,'Widget 4990',146.33,True
4991,'Widget 4991',148.67,False
4992,'Widget 4992',151.0,True
4993,'Widget 4993',153.33,False
4994,'Widget 4994',155.67,True
4995,'Widget 4995',158.0,False
4996,'Widget 4996',160.33,True
4997,'Widget 4997',162.67,False
4998,'Widget 4998',165.0,True
4999,'Widget 4999',167.33,False
5000,'Widget 5000',3.0,True
5001,'Widget 5001',5.33,False
5002,'Widget 5002',7.67,True
5003,'Widget 5003',10.0,False
5004,'Widget 5004',12.33,True
5005,'Widget 5005',14.67,False
5006,'Widget 5006',17.0,True
5007,'Widget 5007',19.33,False
5008,'Widget 5008',21.67,True
5009,'Widget 5009',24.0,False
5010,'Widget 5010',26.33,True
5011,'Widget 5011',28.67,False
5012,'Widget 5012',31.0,True
5013,'Widget 5013',33.33,False
5014,'Widget 5014',35.67,True
5015,'Widget 5015',38.0,False
5016,'Widget 5016',40.33,True
5017,'Widget 5017',42.67,False
5018,'Widget 5018',45.0,True
5019,'Widget 5019',47.33,False
5020,'Widget 5020',49.67,True
5021,'Widget 5021',52.0,False
5022,'Widget 5022',54.33,True
5023,'Widget 5023',56.67,False
5024,'Widget 5024',59.0,True
5025,'Widget 5025',61.33,False
5026,'Widget 5026',63.67,True
5027,'Widget 5027',66.0,False
5028,'Widget 5028',68.33,True
5029,'Widget 5029',70.67,False
5030,'Widget 5030',73.0,True
5031,'Widget 5031',75.33,False
5032,'Widget 5032',77.67,True
5033,'Widget 5033',80.0,False
5034,'Widget 5034',82.33,True
5035,'Widget 5035',84.67,False
5036,'Widget 5036',87.0,True
5037,'Widget 5037',89.33,False
5038,'Widget 5038',91.67,True
5039,'Widget 5039',94.0,False
5040,'Widget 5040',96.33,True
5041,'Widget 5041',98.67,False
5042,'Widget 5042',101.0,True
5043,'Widget 5043',103.33,False
5044,'Widget 5044',105.67,True
5045,'Widget 5045',108.0,False
5046,'Widget 5046',110.33,True
5047,'Widget 5047',112.67,False
5048,'Widget 5048',115.0,True
5049,'Widget 5049',117.33,False
5050,'Widget 5050',119.67,True
5051,'Widget 5051',122.0,False
5052,'Widget 5052',124.33,True
5053,'Widget 5053',126.67,False
5054,'Widget 5054',129.0,True
5055,'Widget 5055',131.33,False
5056,'Widget 5056',133.67,True
5057,'Widget 5057',136.0,False
5058,'Widget 5058',138.33,True
5059,'Widget 5059',140.67,False
5060,'Widget 5060',143.0,True
5061,'Widget 5061',145.33,False
5062,'Widget 5062',147.67,True
5063,'Widget 5063',150.0,False
5064,'Widget 5064',152.33,True
5065,'Widget 5065',154.67,False
5066,'Widget 5066',157.0,True
5067,'Widget 5067',159.33,False
5068,'Widget 5068',161.67,True
5069,'Widget 5069',164.0,False
5070,'Widget 5070',166.33,True
5071,'Widget 5071',168.67,False
5072,'Widget 5072',4.33,True
5073,'Widget 5073',6.67,False
5074,'Widget 5074',9.0,True
5075,'Widget 5075',11.33,False
5076,'Widget 5076',13.67,True
5077,'Widget 5077',16.0,False
5078,'Widget 5078',18.33,True
5079,'Widget 5079',20.67,False
5080,'Widget 5080',23.0,True
5081,'Widget 5081',25.33,False
5082,'Widget 5082',27.67,True
5083,'Widget 5083',30.0,False
5084,'Widget 5084',32.33,True
5085,'Widget 5085',34.67,False
5086,'Widget 5086',37.0,True
5087,'Widget 5087',39.33,False
5088,'Widget 5088',41.67,True
5089,'Widget 5089',44.0,False
5090,'Widget 5090',46.33,True
5091,'Widget 5091',48.67,False
5092,'Widget 5092',51.0,True
5093,'Widget 5093',53.33,False
5094,'Widget 5094',55.67,True
5095,'Widget 5095',58.0,False
5096,'Widget 5096',60.33,True
5097,'Widget 5097',62.67,False
5098,'Widget 5098',65.0,True
5099,'Widget 5099',67.33,False
5100,'Widget 5100',69.67,True
5101,'Widget 5101',72.0,False
5102,'Widget 5102',74.33,True
5103,'Widget 5103',76.67,False
5104,'Widget 5104',79.0,True
5105,'Widget 5105',81.33,False
5106,'Widget 5106',83.67,True
5107,'Widget 5107',86.0,False
5108,'Widget 5108',88.33,True
5109,'Widget 5109',90.67,False
5110,'Widget 5110',93.0,True
5111,'Widget 5111',95.33,False
5112,'Widget 5112',97.67,True
5113,'Widget 5113',100.0,False
5114,'Widget 5114',102.33,True
5115,'Widget 5115',104.67,False
5116,'Widget 5116',107.0,True
5117,'Widget 5117',109.33,False
5118,'Widget 5118',111.67,True
5119,'Widget 5119',114.0,False
5120,'Widget 5120',116.33,True
5121,'Widget 5121',118.67,False
5122,'Widget 5122',121.0,True
5123,'Widget 5123',123.33,False
5124,'Widget 5124',125.67,True
5125,'Widget 5125',128.0,False
5126,'Widget 5126',130.33,True
5127,'Widget 5127',132.67,False
5128,'Widget 5128',135.0,True
5129,'Widget 5129',137.33,False
5130,'Widget 5130',139.67,True
5131,'Widget 5131',142.0,False
5132,'Widget 5132',144.33,True
5133,'Widget 5133',146.67,False
5134,'Widget 5134',149.0,True
5135,'Widget 5135',151.33,False
5136,'Widget 5136',153.67,True
5137,'Widget 5137',156.0,False
5138,'Widget 5138',158.33,True
5139,'Widget 5139',160.67,False
5140,'Widget 5140',163.0,True
5141,'Widget 5141',165.33,False
5142,'Widget 5142',167.67,True
5143,'Widget 5143',3.33,False
5144,'Widget 5144',5.67,True
5145,'Widget 5145',8.0,False
5146,'Widget 5146',10.33,True
5147,'Widget 5147',12.67,False
5148,'Widget 5148',15.0,True
5149,'Widget 5149',17.33,False
5150,'Widget 5150',19.67,True
5151,'Widget 5151',22.0,False
5152,'Widget 5152',24.33,True
5153,'Widget 5153',26.67,False
5154,'Widget 5154',29.0,True
5155,'Widget 5155',31.33,False
5156,'Widget 5156',33.67,True
5157,'Widget 5157',36.0,False
5158,'Widget 5158',38.33,True
5159,'Widget 5159',40.67,False
5160,'Widget 5160',43.0,True
5161,'Widget 5161',45.33,False
5162,'Widget 5162',47.67,True
5163,'Widget 5163',50.0,False
5164,'Widget 5164',52.33,True
5165,'Widget 5165',54.67,False
5166,'Widget 5166',57.0,True
5167,'Widget 5167',59.33,False
5168,'Widget 5168',61.67,True
5169,'Widget 5169',64.0,False
5170,'Widget 5170',66.33,True
5171,'Widget 5171',68.67,False
5172,'Widget 5172',71.0,True
5173,'Widget 5173',73.33,False
5174,'Widget 5174',75.67,True
5175,'Widget 5175',78.0,False
5176,'Widget 5176',80.33,True
5177,'Widget 5177',82.67,False
5178,'Widget 5178',85.0,True
5179,'Widget 5179',87.33,False
5180,'Widget 5180',89.67,True
5181,'Widget 5181',92.0,False
5182,'Widget 5182',94.33,True
5183,'Widget 5183',96.67,False
5184,'Widget 5184',99.0,True
5185,'Widget 5185',101.33,False
5186,'Widget 5186',103.67,True
5187,'Widget 5187',106.0,False
5188,'Widget 5188',108.33,True
5189,'Widget 5189',110.67,False
5190,'Widget 5190',113.0,True
5191,'Widget 5191',115.33,False
5192,'Widget 5192',117.67,True
5193,'Widget 5193',120.0,False
5194,'Widget 5194',122.33,True
5195,'Widget 5195',124.67,False
5196,'Widget 5196',127.0,True
5197,'Widget 5197',129.33,False
5198,'Widget 5198',131.67,True
5199,'Widget 5199',134.0,False
5200,'Widget 5200',136.33,True
5201,'Widget 5201',138.67,False
5202,'Widget 5202',141.0,True
5203,'Widget 5203',143.33,False
5204,'Widget 5204',145.67,True
5205,'Widget 5205',148.0,False
5206,'Widget 5206',150.33,True
5207,'Widget 5207',152.67,False
5208,'Widget 5208',155.0,True
5209,'Widget 5209',157.33,False
5210,'Widget 5210',159.67,True
5211,'Widget 5211',162.0,False
5212,'Widget 5212',164.33,True
5213,'Widget 5213',166.67,False
5214,'Widget 5214',169.0,True
5215,'Widget 5215',4.67,False
5216,'Widget 5216',7.0,True
5217,'Widget 5217',9.33,False
5218,'Widget 5218',11.67,True
5219,'Widget 5219',14.0,False
5220,'Widget 5220',16.33,True
5221,'Widget 5221',18.67,False
5222,'Widget 5222',21.0,True
5223,'Widget 5223',23.33,False
5224,'Widget 5224',25.67,True
5225,'Widget 5225',28.0,False
5226,'Widget 5226',30.33,True
5227,'Widget 5227',32.67,False
5228,'Widget 5228',35.0,True
5229,'Widget 5229',37.33,False
5230,'Widget 5230',39.67,True
5231,'Widget 5231',42.0,False
5232,'Widget 5232',44.33,True
5233,'Widget 5233',46.67,False
5234,'Widget 5234',49.0,True
5235,'Widget 5235',51.33,False
5236,'Widget 5236',53.67,True
5237,'Widget 5237',56.0,False
5238,'Widget 5238',58.33,True
5239,'Widget 5239',60.67,False
5240,'Widget 5240',63.0,True
5241,'Widget 5241',65.33,False
5242,'Widget 5242',67.67,True
5243,'Widget 5243',70.0,False
5244,'Widget 5244',72.33,True
5245,'Widget 5245',74.67,False
5246,'Widget 5246',77.0,True
5247,'Widget 5247',79.33,False
5248,'Widget 5248',81.67,True
5249,'Widget 5249',84.0,False
5250,'Widget 5250',86.33,True
5251,'Widget 5251',88.67,False
5252,'Widget 5252',91.0,True
5253,'Widget 5253',93.33,False
5254,'Widget 5254',95.67,True
5255,'Widget 5255',98.0,False
5256,'Widget 5256',100.33,True
5257,'Widget 5257',102.67,False
5258,'Widget 5258',105.0,True
5259,'Widget 5259',107.33,False
5260,'Widget 5260',109.67,True
5261,'Widget 5261',112.0,False
5262,'Widget 5262',114.33,True
5263,'Widget 5263',116.67,False
5264,'Widget 5264',119.0,True
5265,'Widget 5265',121.33,False
5266,'Widget 5266',123.67,True
5267,'Widget 5267',126.0,False
5268,'Widget 5268',128.33,True
5269,'Widget 5269',130.67,False
5270,'Widget 5270',133.0,True
5271,'Widget 5271',135.33,False
5272,'Widget 5272',137.67,True
5273,'Widget 5273',140.0,False
5274,'Widget 5274',142.33,True
5275,'Widget 5275',144.67,False
5276,'Widget 5276',147.0,True
5277,'Widget 5277',149.33,False
5278,'Widget 5278',151.67,True
5279,'Widget 5279',154.0,False
5280,'Widget 5280',156.33,True
5281,'Widget 5281',158.67,False
5282,'Widget 5282',161.0,True
5283,'Widget 5283',163.33,False
5284,'Widget 5284',165.67,True
5285,'Widget 5285',168.0,False
5286,'Widget 5286',3.67,True
5287,'Widget 5287',6.0,False
5288,'Widget 5288',8.33,True
5289,'Widget 5289',10.67,False
5290,'Widget 5290',13.0,True
5291,'Widget 5291',15.33,False
5292,'Widget 5292',17.67,True
5293,'Widget 5293',20.0,False
5294,'Widget 5294',22.33,True
5295,'Widget 5295',24.67,False
5296,'Widget 5296',27.0,True
5297,'Widget 5297',29.33,False
5298,'Widget 5298',31.67,True
5299,'Widget 5299',34.0,False
5300,'Widget 5300',36.33,True
5301,'Widget 5301',38.67,False
5302,'Widget 5302',41.0,True
5303,'Widget 5303',43.33,False
5304,'Widget 5304',45.67,True
5305,'Widget 5305',48.0,False
5306,'Widget 5306',50.33,True
5307,'Widget 5307',52.67,False
5308,'Widget 5308',55.0,True
5309,'Widget 5309',57.33,False
5310,'Widget 5310',59.67,True
5311,'Widget 5311',62.0,False
5312,'Widget 5312',64.33,True
5313,'Widget 5313',66.67,False
5314,'Widget 5314',69.0,True
5315,'Widget 5315',71.33,False
5316,'Widget 5316',73.67,True
5317,'Widget 5317',76.0,False
5318,'Widget 5318',78.33,True
5319,'Widget 5319',80.67,False
5320,'Widget 5320',83.0,True
5321,'Widget 5321',85.33,False
5322,'Widget 5322',87.67,True
5323,'Widget 5323',90.0,False
5324,'Widget 5324',92.33,True
5325,'Widget 5325',94.67,False
5326,'Widget 5326',97.0,True
5327,'Widget 5327',99.33,False
5328,'Widget 5328',101.67,True
5329,'Widget 5329',104.0,False
5330,'Widget 5330',106.33,True
5331,'Widget 5331',108.67,False
5332,'Widget 5332',111.0,True
5333,'Widget 5333',113.33,False
5334,'Widget 5334',115.67,True
5335,'Widget 5335',118.0,False
5336,'Widget 5336',120.33,True
5337,'Widget 5337',122.67,False
5338,'Widget 5338',125.0,True
5339,'Widget 5339',127.33,False
5340,'Widget 5340',129.67,True
5341,'Widget 5341',132.0,False
5342,'Widget 5342',134.33,True
5343,'Widget 5343',136.67,False
5344,'Widget 5344',139.0,True
5345,'Widget 5345',141.33,False
5346,'Widget 5346',143.67,True
5347,'Widget 5347',146.0,False
5348,'Widget 5348',148.33,True
5349,'Widget 5349',150.67,False
5350,'Widget 5350',153.0,True
5351,'Widget 5351',155.33,False
5352,'Widget 5352',157.67,True
5353,'Widget 5353',160.0,False
5354,'Widget 5354',162.33,True
5355,'Widget 5355',164.67,False
5356,'Widget 5356',167.0,True
5357,'Widget 5357',169.33,False
5358,'Widget 5358',5.0,True
5359,'Widget 5359',7.33,False
5360,'Widget 5360',9.67,True
5361,'Widget 5361',12.0,False
5362,'Widget 5362',14.33,True
5363,'Widget 5363',16.67,False
5364,'Widget 5364',19.0,True
5365,'Widget 5365',21.33,False
5366,'Widget 5366',23.67,True
5367,'Widget 5367',26.0,False
5368,'Widget 5368',28.33,True
5369,'Widget 5369',30.67,False
5370,'Widget 5370',33.0,True
5371,'Widget 5371',35.33,False
5372,'Widget 5372',37.67,True
5373,'Widget 5373',40.0,False
5374,'Widget 5374',42.33,True
5375,'Widget 5375',44.67,False
5376,'Widget 5376',47.0,True
5377,'Widget 5377',49.33,False
5378,'Widget 5378',51.67,True
5379,'Widget 5379',54.0,False
5380,'Widget 5380',56.33,True
5381,'Widget 5381',58.67,False
5382,'Widget 5382',61.0,True
5383,'Widget 5383',63.33,False
5384,'Widget 5384',65.67,True
5385,'Widget 5385',68.0,False
5386,'Widget 5386',70.33,True
5387,'Widget 5387',72.67,False
5388,'Widget 5388',75.0,True
5389,'Widget 5389',77.33,False
5390,'Widget 5390',79.67,True
5391,'Widget 5391',82.0,False
5392,'Widget 5392',84.33,True
5393,'Widget 5393',86.67,False
5394,'Widget 5394',89.0,True
5395,'Widget 5395',91.33,False
5396,'Widget 5396',93.67,True
5397,'Widget 5397',96.0,False
5398,'Widget 5398',98.33,True
5399,'Widget 5399',100.67,False
5400,'Widget 5400',103.0,True
5401,'Widget 5401',105.33,False
5402,'Widget 5402',107.67,True
5403,'Widget 5403',110.0,False
5404,'Widget 5404',112.33,True
5405,'Widget 5405',114.67,False
5406,'Widget 5406',117.0,True
5407,'Widget 5407',119.33,False
5408,'Widget 5408',121.67,True
5409,'Widget 5409',124.0,False
5410,'Widget 5410',126.33,True
5411,'Widget 5411',128.67,False
5412,'Widget 5412',131.0,True
5413,'Widget 5413',133.33,False
5414,'Widget 5414',135.67,True
5415,'Widget 5415',138.0,False
5416,'Widget 5416',140.33,True
5417,'Widget 5417',142.67,False
5418,'Widget 5418',145.0,True
5419,'Widget 5419',147.33,False
5420,'Widget 5420',149.67,True
5421,'Widget 5421',152.0,False
5422,'Widget 5422',154.33,True
5423,'Widget 5423',156.67,False
5424,'Widget 5424',159.0,True
5425,'Widget 5425',161.33,False
5426,'Widget 5426',163.67,True
5427,'Widget 5427',166.0,False
5428,'Widget 5428',168.33,True
5429,'Widget 5429',4.0,False
5430,'Widget 5430',6.33,True
5431,'Widget 5431',8.67,False
5432,'Widget 5432',11.0,True
5433,'Widget 5433',13.33,False
5434,'Widget 5434',15.67,True
5435,'Widget 5435',18.0,False
5436,'Widget 5436',20.33,True
5437,'Widget 5437',22.67,False
5438,'Widget 5438',25.0,True
5439,'Widget 5439',27.33,False
5440,'Widget 5440',29.67,True
5441,'Widget 5441',32.0,False
5442,'Widget 5442',34.33,True
5443,'Widget 5443',36.67,False
5444,'Widget 5444',39.0,True
5445,'Widget 5445',41.33,False
5446,'Widget 5446',43.67,True
5447,'Widget 5447',46.0,False
5448,'Widget 5448',48.33,True
5449,'Widget 5449',50.67,False
5450,'Widget 5450',53.0,True
5451,'Widget 5451',55.33,False
5452,'Widget 5452',57.67,True
5453,'Widget 5453',60.0,False
5454,'Widget 5454',62.33,True
5455,'Widget 5455',64.67,False
5456,'Widget 5456',67.0,True
5457,'Widget 5457',69.33,False
5458,'Widget 5458',71.67,True
5459,'Widget 5459',74.0,False
5460,'Widget 5460',76.33,True
5461,'Widget 5461',78.67,False
5462,'Widget 5462',81.0,True
5463,'Widget 5463',83.33,False
5464,'Widget 5464',85.67,True
5465,'Widget 5465',88.0,False
5466,'Widget 5466',90.33,True
5467,'Widget 5467',92.67,False
5468,'Widget 5468',95.0,True
5469,'Widget 5469',97.33,False
5470,'Widget 5470',99.67,True
5471,'Widget 5471',102.0,False
5472,'Widget 5472',104.33,True
5473,'Widget 5473',106.67,False
5474,'Widget 5474',109.0,True
5475,'Widget 5475',111.33,False
5476,'Widget 5476',113.67,True
5477,'Widget 5477',116.0,False
5478,'Widget 5478',118.33,True
5479,'Widget 5479',120.67,False
5480,'Widget 5480',123.0,True
5481,'Widget 5481',125.33,False
5482,'Widget 5482',127.67,True
5483,'Widget 5483',130.0,False
5484,'Widget 5484',132.33,True
5485,'Widget 5485',134.67,False
5486,'Widget 5486',137.0,True
5487,'Widget 5487',139.33,False
5488,'Widget 5488',141.67,True
5489,'Widget 5489',144.0,False
5490,'Widget 5490',146.33,True
5491,'Widget 5491',148.67,False
5492,'Widget 5492',151.0,True
5493,'Widget 5493',153.33,False
5494,'Widget 5494',155.67,True
5495,'Widget 5495',158.0,False
5496,'Widget 5496',160.33,True
5497,'Widget 5497',162.67,False
5498,'Widget 5498',165.0,True
5499,'Widget 5499',167.33,False
5500,'Widget 5500',3.0,True
5501,'Widget 5501',5.33,False
5502,'Widget 5502',7.67,True
5503,'Widget 5503',10.0,False
5504,'Widget 5504',12.33,True
5505,'Widget 5505',14.67,False
5506,'Widget 5506',17.0,True
5507,'Widget 5507',19.33,False
5508,'Widget 5508',21.67,True
5509,'Widget 5509',24.0,False
5510,'Widget 5510',26.33,True
5511,'Widget 5511',28.67,False
5512,'Widget 5512',31.0,True
5513,'Widget 5513',33.33,False
5514,'Widget 5514',35.67,True
5515,'Widget 5515',38.0,False
5516,'Widget 5516',40.33,True
5517,'Widget 5517',42.67,False
5518,'Widget 5518',45.0,True
5519,'Widget 5519',47.33,False
5520,'Widget 5520',49.67,True
5521,'Widget 5521',52.0,False
5522,'Widget 5522',54.33,True
5523,'Widget 5523',56.67,False
5524,'Widget 5524',59.0,True
5525,'Widget 5525',61.33,False
5526,'Widget 5526',63.67,True
5527,'Widget 5527',66.0,False
5528,'Widget 5528',68.33,True
5529,'Widget 5529',70.67,False
5530,'Widget 5530',73.0,True
5531,'Widget 5531',75.33,False
5532,'Widget 5532',77.67,True
5533,'Widget 5533',80.0,False
5534,'Widget 5534',82.33,True
5535,'Widget 5535',84.67,False
5536,'Widget 5536',87.0,True
5537,'Widget 5537',89.33,False
5538,'Widget 5538',91.67,True
5539,'Widget 5539',94.0,False
5540,'Widget 5540',96.33,True
5541,'Widget 5541',98.67,False
5542,'Widget 5542',101.0,True
5543,'Widget 5543',103.33,False
5544,'Widget 5544',105.67,True
5545,'Widget 5545',108.0,False
5546,'Widget 5546',110.33,True
5547,'Widget 5547',112.67,False
5548,'Widget 5548',115.0,True
5549,'Widget 5549',117.33,False
5550,'Widget 5550',119.67,True
5551,'Widget 5551',122.0,False
5552,'Widget 5552',124.33,True
5553,'Widget 5553',126.67,False
5554,'Widget 5554',129.0,True
5555,'Widget 5555',131.33,False
5556,'Widget 5556',133.67,True
5557,'Widget 5557',136.0,False
5558,'Widget 5558',138.33,True
5559,'Widget 5559',140.67,False
5560,'Widget 5560',143.0,True
5561,'Widget 5561',145.33,False
5562,'Widget 5562',147.67,True
5563,'Widget 5563',150.0,False
5564,'Widget 5564',152.33,True
5565,'Widget 5565',154.67,False
5566,'Widget 5566',157.0,True
5567,'Widget 5567',159.33,False
5568,'Widget 5568',161.67,True
5569,'Widget 5569',164.0,False
5570,'Widget 5570',166.33,True
5571,'Widget 5571',168.67,False
5572,'Widget 5572',4.33,True
5573,'Widget 5573',6.67,False
5574,'Widget 5574',9.0,True
5575,'Widget 5575',11.33,False
5576,'Widget 5576',13.67,True
5577,'Widget 5577',16.0,False
5578,'Widget 5578',18.33,True
5579,'Widget 5579',20.67,False
5580,'Widget 5580',23.0,True
5581,'Widget 5581',25.33,False
5582,'Widget 5582',27.67,True
5583,'Widget 5583',30.0,False
5584,'Widget 5584',32.33,True
5585,'Widget 5585',34.67,False
5586,'Widget 5586',37.0,True
5587,'Widget 5587',39.33,False
5588,'Widget 5588',41.67,True
5589,'Widget 5589',44.0,False
5590,'Widget 5590',46.33,True
5591,'Widget 5591',48.67,False
5592,'Widget 5592',51.0,True
5593,'Widget 5593',53.33,False
5594,'Widget 5594',55.67,True
5595,'Widget 5595',58.0,False
5596,'Widget 5596',60.33,True
5597,'Widget 5597',62.67,False
5598,'Widget 5598',65.0,True
5599,'Widget 5599',67.33,False
5600,'Widget 5600',69.67,True
5601,'Widget 5601',72.0,False
5602,'Widget 5602',74.33,True
5603,'Widget 5603',76.67,False
5604,'Widget 5604',79.0,True
5605,'Widget 5605',81.33,False
5606,'Widget 5606',83.67,True
5607,'Widget 5607',86.0,False
5608,'Widget 5608',88.33,True
5609,'Widget 5609',90.67,False
5610,'Widget 5610',93.0,True
5611,'Widget 5611',95.33,False
5612,'Widget 5612',97.67,True
5613,'Widget 5613',100.0,False
5614,'Widget 5614',102.33,True
5615,'Widget 5615',104.67,False
5616,'Widget 5616',107.0,True
5617,'Widget 5617',109.33,False
5618,'Widget 5618',111.67,True
5619,'Widget 5619',114.0,False
5620,'Widget 5620',116.33,True
5621,'Widget 5621',118.67,False
5622,'Widget 5622',121.0,True
5623,'Widget 5623',123.33,False
5624,'Widget 5624',125.67,True
5625,'Widget 5625',128.0,False
5626,'Widget 5626',130.33,True
5627,'Widget 5627',132.67,False
5628,'Widget 5628',135.0,True
5629,'Widget 5629',137.33,False
5630,'Widget 5630',139.67,True
5631,'Widget 5631',142.0,False
5632,'Widget 5632',144.33,True
5633,'Widget 5633',146.67,False
5634,'Widget 5634',149.0,True
5635,'Widget 5635',151.33,False
5636,'Widget 5636',153.67,True
5637,'Widget 5637',156.0,False
5638,'Widget 5638',158.33,True
5639,'Widget 5639',160.67,False
5640,'Widget 5640',163.0,True
5641,'Widget 5641',165.33,False
5642,'Widget 5642',167.67,True
5643,'Widget 5643',3.33,False
5644,'Widget 5644',5.67,True
5645,'Widget 5645',8.0,False
5646,'Widget 5646',10.33,True
5647,'Widget 5647',12.67,False
5648,'Widget 5648',15.0,True
5649,'Widget 5649',17.33,False
5650,'Widget 5650',19.67,True
5651,'Widget 5651',22.0,False
5652,'Widget 5652',24.33,True
5653,'Widget 5653',26.67,False
5654,'Widget 5654',29.0,True
5655,'Widget 5655',31.33,False
5656,'Widget 5656',33.67,True
5657,'Widget 5657',36.0,False
5658,'Widget 5658',38.33,True
5659,'Widget 5659',40.67,False
5660,'Widget 5660',43.0,True
5661,'Widget 5661',45.33,False
5662,'Widget 5662',47.67,True
5663,'Widget 5663',50.0,False
5664,'Widget 5664',52.33,True
5665,'Widget 5665',54.67,False
5666,'Widget 5666',57.0,True
5667,'Widget 5667',59.33,False
5668,'Widget 5668',61.67,True
5669,'Widget 5669',64.0,False
5670,'Widget 5670',66.33,True
5671,'Widget 5671',68.67,False
5672,'Widget 5672',71.0,True
5673,'Widget 5673',73.33,False
5674,'Widget 5674',75.67,True
5675,'Widget 5675',78.0,False
5676,'Widget 5676',80.33,True
5677,'Widget 5677',82.67,False
5678,'Widget 5678',85.0,True
5679,'Widget 5679',87.33,False
5680,'Widget 5680',89.67,True
5681,'Widget 5681',92.0,False
5682,'Widget 5682',94.33,True
5683,'Widget 5683',96.67,False
5684,'Widget 5684',99.0,True
5685,'Widget 5685',101.33,False
5686,'Widget 5686',103.67,True
5687,'Widget 5687',106.0,False
5688,'Widget 5688',108.33,True
5689,'Widget 5689',110.67,False
5690,'Widget 5690',113.0,True
5691,'Widget 5691',115.33,False
5692,'Widget 5692',117.67,True
5693,'Widget 5693',120.0,False
5694,'Widget 5694',122.33,True
5695,'Widget 5695',124.67,False
5696,'Widget 5696',127.0,True
5697,'Widget 5697',129.33,False
5698,'Widget 5698',131.67,True
5699,'Widget 5699',134.0,False
5700,'Widget 5700',136.33,True
5701,'Widget 5701',138.67,False
5702,'Widget 5702',141.0,True
5703,'Widget 5703',143.33,False
5704,'Widget 5704',145.67,True
5705,'Widget 5705',148.0,False
5706,'Widget 5706',150.33,True
5707,'Widget 5707',152.67,False
5708,'Widget 5708',155.0,True
5709,'Widget 5709',157.33,False
5710,'Widget 5710',159.67,True
5711,'Widget 5711',162.0,False
5712,'Widget 5712',164.33,True
5713,'Widget 5713',166.67,False
5714,'Widget 5714',169.0,True
5715,'Widget 5715',4.67,False
5716,'Widget 5716',7.0,True
5717,'Widget 5717',9.33,False
5718,'Widget 5718',11.67,True
5719,'Widget 5719',14.0,False
5720,'Widget 5720',16.33,True
5721,'Widget 5721',18.67,False
5722,'Widget 5722',21.0,True
5723,'Widget 5723',23.33,False
5724,'Widget 5724',25.67,True
5725,'Widget 5725',28.0,False
5726,'Widget 5726',30.33,True
5727,'Widget 5727',32.67,False
5728,'Widget 5728',35.0,True
5729,'Widget 5729',37.33,False
5730,'Widget 5730',39.67,True
5731,'Widget 5731',42.0,False
5732,'Widget 5732',44.33,True
5733,'Widget 5733',46.67,False
5734,'Widget 5734',49.0,True
5735,'Widget 5735',51.33,False
5736,'Widget 5736',53.67,True
5737,'Widget 5737',56.0,False
5738,'Widget 5738',58.33,True
5739,'Widget 5739',60.67,False
5740,'Widget 5740',63.0,True
5741,'Widget 5741',65.33,False
5742,'Widget 5742',67.67,True
5743,'Widget 5743',70.0,False
5744,'Widget 5744',72.33,True
5745,'Widget 5745',74.67,False
5746,'Widget 5746',77.0,True
5747,'Widget 5747',79.33,False
5748,'Widget 5748',81.67,True
5749,'Widget 5749',84.0,False
5750,'Widget 5750',86.33,True
5751,'Widget 5751',88.67,False
5752,'Widget 5752',91.0,True
5753,'Widget 5753',93.33,False
5754,'Widget 5754',95.67,True
5755,'Widget 5755',98.0,False
5756,'Widget 5756',100.33,True
5757,'Widget 5757',102.67,False
5758,'Widget 5758',105.0,True
5759,'Widget 5759',107.33,False
5760,'Widget 5760',109.67,True
5761,'Widget 5761',112.0,False
5762,'Widget 5762',114.33,True
5763,'Widget 5763',116.67,False
5764,'Widget 5764',119.0,True
5765,'Widget 5765',121.33,False
5766,'Widget 5766',123.67,True
5767,'Widget 5767',126.0,False
5768,'Widget 5768',128.33,True
5769,'Widget 5769',130.67,False
5770,'Widget 5770',133.0,True
5771,'Widget 5771',135.33,False
5772,'Widget 5772',137.67,True
5773,'Widget 5773',140.0,False
5774,'Widget 5774',142.33,True
5775,'Widget 5775',144.67,False
5776,'Widget 5776',147.0,True
5777,'Widget 5777',149.33,False
5778,'Widget 5778',151.67,True
5779,'Widget 5779',154.0,False
5780,'Widget 5780',156.33,True
5781,'Widget 5781',158.67,False
5782,'Widget 5782',161.0,True
5783,'Widget 5783',163.33,False
5784,'Widget 5784',165.67,True
5785,'Widget 5785',168.0,False
5786,'Widget 5786',3.67,True
5787,'Widget 5787',6.0,False
5788,'Widget 5788',8.33,True
5789,'Widget 5789',10.67,False
5790,'Widget 5790',13.0,True
5791,'Widget 5791',15.33,False
5792,'Widget 5792',17.67,True
5793,'Widget 5793',20.0,False
5794,'Widget 5794',22.33,True
5795,'Widget 5795',24.67,False
5796,'Widget 5796',27.0,True
5797,'Widget 5797',29.33,False
5798,'Widget 5798',31.67,True
5799,'Widget 5799',34.0,False
5800,'Widget 5800',36.33,True
5801,'Widget 5801',38.67,False
5802,'Widget 5802',41.0,True
5803,'Widget 5803',43.33,False
5804,'Widget 5804',45.67,True
5805,'Widget 5805',48.0,False
5806,'Widget 5806',50.33,True
5807,'Widget 5807',52.67,False
5808,'Widget 5808',55.0,True
5809,'Widget 5809',57.33,False
5810,'Widget 5810',59.67,True
5811,'Widget 5811',62.0,False
5812,'Widget 5812',64.33,True
5813,'Widget 5813',66.67,False
5814,'Widget 5814',69.0,True
5815,'Widget 5815',71.33,False
5816,'Widget 5816',73.67,True
5817,'Widget 5817',76.0,False
5818,'Widget 5818',78.33,True
5819,'Widget 5819',80.67,False
5820,'Widget 5820',83.0,True
5821,'Widget 5821',85.33,False
5822,'Widget 5822',87.67,True
5823,'Widget 5823',90.0,False
5824,'Widget 5824',92.33,True
5825,'Widget 5825',94.67,False
5826,'Widget 5826',97.0,True
5827,'Widget 5827',99.33,False
5828,'Widget 5828',101.67,True
5829,'Widget 5829',104.0,False
5830,'Widget 5830',106.33,True
5831,'Widget 5831',108.67,False
5832,'Widget 5832',111.0,True
5833,'Widget 5833',113.33,False
5834,'Widget 5834',115.67,True
5835,'Widget 5835',118.0,False
5836,'Widget 5836',120.33,True
5837,'Widget 5837',122.67,False
5838,'Widget 5838',125.0,True
5839,'Widget 5839',127.33,False
5840,'Widget 5840',129.67,True
5841,'Widget 5841',132.0,False
5842,'Widget 5842',134.33,True
5843,'Widget 5843',136.67,False
5844,'Widget 5844',139.0,True
5845,'Widget 5845',141.33,False
5846,'Widget 5846',143.67,True
5847,'Widget 5847',146.0,False
5848,'Widget 5848',148.33,True
5849,'Widget 5849',150.67,False
5850,'Widget 5850',153.0,True
5851,'Widget 5851',155.33,False
5852,'Widget 5852',157.67,True
5853,'Widget 5853',160.0,False
5854,'Widget 5854',162.33,True
5855,'Widget 5855',164.67,False
5856,'Widget 5856',167.0,True
5857,'Widget 5857',169.33,False
5858,'Widget 5858',5.0,True
5859,'Widget 5859',7.33,False
5860,'Widget 5860',9.67,True
5861,'Widget 5861',12.0,False
5862,'Widget 5862',14.33,True
5863,'Widget 5863',16.67,False
5864,'Widget 5864',19.0,True
5865,'Widget 5865',21.33,False
5866,'Widget 5866',23.67,True
5867,'Widget 5867',26.0,False
5868,'Widget 5868',28.33,True
5869,'Widget 5869',30.67,False
5870,'Widget 5870',33.0,True
5871,'Widget 5871',35.33,False
5872,'Widget 5872',37.67,True
5873,'Widget 5873',40.0,False
5874,'Widget 5874',42.33,True
5875,'Widget 5875',44.67,False
5876,'Widget 5876',47.0,True
5877,'Widget 5877',49.33,False
5878,'Widget 5878',51.67,True
5879,'Widget 5879',54.0,False
5880,'Widget 5880',56.33,True
5881,'Widget 5881',58.67,False
5882,'Widget 5882',61.0,True
5883,'Widget 5883',63.33,False
5884,'Widget 5884',65.67,True
5885,'Widget 5885',68.0,False
5886,'Widget 5886',70.33,True
5887,'Widget 5887',72.67,False
5888,'Widget 5888',75.0,True
5889,'Widget 5889',77.33,False
5890,'Widget 5890',79.67,True
5891,'Widget 5891',82.0,False
5892,'Widget 5892',84.33,True
5893,'Widget 5893',86.67,False
5894,'Widget 5894',89.0,True
5895,'Widget 5895',91.33,False
5896,'Widget 5896',93.67,True
5897,'Widget 5897',96.0,False
5898,'Widget 5898',98.33,True
5899,'Widget 5899',100.67,False
5900,'Widget 5900',103.0,True
5901,'Widget 5901',105.33,False
5902,'Widget 5902',107.67,True
5903,'Widget 5903',110.0,False
5904,'Widget 5904',112.33,True
5905,'Widget 5905',114.67,False
5906,'Widget 5906',117.0,True
5907,'Widget 5907',119.33,False
5908,'Widget 5908',121.67,True
5909,'Widget 5909',124.0,False
5910,'Widget 5910',126.33,True
5911,'Widget 5911',128.67,False
5912,'Widget 5912',131.0,True
5913,'Widget 5913',133.33,False
5914,'Widget 5914',135.67,True
5915,'Widget 5915',138.0,False
5916,'Widget 5916',140.33,True
5917,'Widget 5917',142.67,False
5918,'Widget 5918',145.0,True
5919,'Widget 5919',147.33,False
5920,'Widget 5920',149.67,True
5921,'Widget 5921',152.0,False
5922,'Widget 5922',154.33,True
5923,'Widget 5923',156.67,False
5924,'Widget 5924',159.0,True
5925,'Widget 5925',161.33,False
5926,'Widget 5926',163.67,True
5927,'Widget 5927',166.0,False
5928,'Widget 5928',168.33,True
5929,'Widget 5929',4.0,False
5930,'Widget 5930',6.33,True
5931,'Widget 5931',8.67,False
5932,'Widget 5932',11.0,True
5933,'Widget 5933',13.33,False
5934,'Widget 5934',15.67,True
5935,'Widget 5935',18.0,False
5936,'Widget 5936',20.33,True
5937,'Widget 5937',22.67,False
5938,'Widget 5938',25.0,True
5939,'Widget 5939',27.33,False
5940,'Widget 5940',29.67,True
5941,'Widget 5941',32.0,False
5942,'Widget 5942',34.33,True
5943,'Widget 5943',36.67,False
5944,'Widget 5944',39.0,True
5945,'Widget 5945',41.33,False
5946,'Widget 5946',43.67,True
5947,'Widget 5947',46.0,False
5948,'Widget 5948',48.33,True
5949,'Widget 5949',50.67,False
5950,'Widget 5950',53.0,True
5951,'Widget 5951',55.33,False
5952,'Widget 5952',57.67,True
5953,'Widget 5953',60.0,False
5954,'Widget 5954',62.33,True
5955,'Widget 5955',64.67,False
5956,'Widget 5956',67.0,True
5957,'Widget 5957',69.33,False
5958,'Widget 5958',71.67,True
5959,'Widget 5959',74.0,False
5960,'Widget 5960',76.33,True
5961,'Widget 5961',78.67,False
5962,'Widget 5962',81.0,True
5963,'Widget 5963',83.33,False
5964,'Widget 5964',85.67,True
5965,'Widget 5965',88.0,False
5966,'Widget 5966',90.33,True
5967,'Widget 5967',92.67,False
5968,'Widget 5968',95.0,True
5969,'Widget 5969',97.33,False
5970,'Widget 5970',99.67,True
5971,'Widget 5971',102.0,False
5972,'Widget 5972',104.33,True
5973,'Widget 5973',106.67,False
5974,'Widget 5974',109.0,True
5975,'Widget 5975',111.33,False
5976,'Widget 5976',113.67,True
5977,'Widget 5977',116.0,False
5978,'Widget 5978',118.33,True
5979,'Widget 5979',120.67,False
5980,'Widget 5980',123.0,True
5981,'Widget 5981',125.33,False
5982,'Widget 5982',127.67,True
5983,'Widget 5983',130.0,False
5984,'Widget 5984',132.33,True
5985,'Widget 5985',134.67,False
5986,'Widget 5986',137.0,True
5987,'Widget 5987',139.33,False
5988,'Widget 5988',141.67,True
5989,'Widget 5989',144.0,False
5990,'Widget 5990',146.33,True
5991,'Widget 5991',148.67,False
5992,'Widget 5992',151.0,True
5993,'Widget 5993',153.33,False
5994,'Widget 5994',155.67,True
5995,'Widget 5995',158.0,False
5996,'Widget 5996',160.33,True
5997,'Widget 5997',162.67,False
5998,'Widget 5998',165.0,True
5999,'Widget 5999',167.33,False
6000,'Widget 6000',3.0,True
6001,'Widget 6001',5.33,False
6002,'Widget 6002',7.67,True
6003,'Widget 6003',10.0,False
6004,'Widget 6004',12.33,True
6005,'Widget 6005',14.67,False
6006,'Widget 6006',17.0,True
6007,'Widget 6007',19.33,False
6008,'Widget 6008',21.67,True
6009,'Widget 6009',24.0,False
6010,'Widget 6010',26.33,True
6011,'Widget 6011',28.67,False
6012,'Widget 6012',31.0,True
6013,'Widget 6013',33.33,False
6014,'Widget 6014',35.67,True
6015,'Widget 6015',38.0,False
6016,'Widget 6016',40.33,True
6017,'Widget 6017',42.67,False
6018,'Widget 6018',45.0,True
6019,'Widget 6019',47.33,False
6020,'Widget 6020',49.67,True
6021,'Widget 6021',52.0,False
6022,'Widget 6022',54.33,True
6023,'Widget 6023',56.67,False
6024,'Widget 6024',59.0,True
6025,'Widget 6025',61.33,False
6026,'Widget 6026',63.67,True
6027,'Widget 6027',66.0,False
6028,'Widget 6028',68.33,True
6029,'Widget 6029',70.67,False
6030,'Widget 6030',73.0,True
6031,'Widget 6031',75.33,False
6032,'Widget 6032',77.67,True
6033,'Widget 6033',80.0,False
6034,'Widget 6034',82.33,True
6035,'Widget 6035',84.67,False
6036,'Widget 6036',87.0,True
6037,'Widget 6037',89.33,False
6038,'Widget 6038',91.67,True
6039,'Widget 6039',94.0,False
6040,'Widget 6040',96.33,True
6041,'Widget 6041',98.67,False
6042,'Widget 6042',101.0,True
6043,'Widget 6043',103.33,False
6044,'Widget 6044',105.67,True
6045,'Widget 6045',108.0,False
6046,'Widget 6046',110.33,True
6047,'Widget 6047',112.67,False
6048,'Widget 6048',115.0,True
6049,'Widget 6049',117.33,False
6050,'Widget 6050',119.67,True
6051,'Widget 6051',122.0,False
6052,'Widget 6052',124.33,True
6053,'Widget 6053',126.67,False
6054,'Widget 6054',129.0,True
6055,'Widget 6055',131.33,False
6056,'Widget 6056',133.67,True
6057,'Widget 6057',136.0,False
6058,'Widget 6058',138.33,True
6059,'Widget 6059',140.67,False
6060,'Widget 6060',143.0,True
6061,'Widget 6061',145.33,False
6062,'Widget 6062',147.67,True
6063,'Widget 6063',150.0,False
6064,'Widget 6064',152.33,True
6065,'Widget 6065',154.67,False
6066,'Widget 6066',157.0,True
6067,'Widget 6067',159.33,False
6068,'Widget 6068',161.67,True
6069,'Widget 6069',164.0,False
6070,'Widget 6070',166.33,True
6071,'Widget 6071',168.67,False
6072,'Widget 6072',4.33,True
6073,'Widget 6073',6.67,False
6074,'Widget 6074',9.0,True
6075,'Widget 6075',11.33,False
6076,'Widget 6076',13.67,True
6077,'Widget 6077',16.0,False
6078,'Widget 6078',18.33,True
6079,'Widget 6079',20.67,False
6080,'Widget 6080',23.0,True
6081,'Widget 6081',25.33,False
6082,'Widget 6082',27.67,True
6083,'Widget 6083',30.0,False
6084,'Widget 6084',32.33,True
6085,'Widget 6085',34.67,False
6086,'Widget 6086',37.0,True
6087,'Widget 6087',39.33,False
6088,'Widget 6088',41.67,True
6089,'Widget 6089',44.0,False
6090,'Widget 6090',46.33,True
6091,'Widget 6091',48.67,False
6092,'Widget 6092',51.0,True
6093,'Widget 6093',53.33,False
6094,'Widget 6094',55.67,True
6095,'Widget 6095',58.0,False
6096,'Widget 6096',60.33,True
6097,'Widget 6097',62.67,False
6098,'Widget 6098',65.0,True
6099,'Widget 6099',67.33,False
6100,'Widget 6100',69.67,True
6101,'Widget 6101',72.0,False
6102,'Widget 6102',74.33,True
6103,'Widget 6103',76.67,False
6104,'Widget 6104',79.0,True
6105,'Widget 6105',81.33,False
6106,'Widget 6106',83.67,True
6107,'Widget 6107',86.0,False
6108,'Widget 6108',88.33,True
6109,'Widget 6109',90.67,False
6110,'Widget 6110',93.0,True
6111,'Widget 6111',95.33,False
6112,'Widget 6112',97.67,True
6113,'Widget 6113',100.0,False
6114,'Widget 6114',102.33,True
6115,'Widget 6115',104.67,False
6116,'Widget 6116',107.0,True
6117,'Widget 6117',109.33,False
6118,'Widget 6118',111.67,True
6119,'Widget 6119',114.0,False
6120,'Widget 6120',116.33,True
6121,'Widget 6121',118.67,False
6122,'Widget 6122',121.0,True
6123,'Widget 6123',123.33,False
6124,'Widget 6124',125.67,True
6125,'Widget 6125',128.0,False
6126,'Widget 6126',130.33,True
6127,'Widget 6127',132.67,False
6128,'Widget 6128',135.0,True
6129,'Widget 6129',137.33,False
6130,'Widget 6130',139.67,True
6131,'Widget 6131',142.0,False
6132,'Widget 6132',144.33,True
6133,'Widget 6133',146.67,False
6134,'Widget 6134',149.0,True
6135,'Widget 6135',151.33,False
6136,'Widget 6136',153.67,True
6137,'Widget 6137',156.0,False
6138,'Widget 6138',158.33,True
6139,'Widget 6139',160.67,False
6140,'Widget 6140',163.0,True
6141,'Widget 6141',165.33,False
6142,'Widget 6142',167.67,True
6143,'Widget 6143',3.33,False
6144,'Widget 6144',5.67,True
6145,'Widget 6145',8.0,False
6146,'Widget 6146',10.33,True
6147,'Widget 6147',12.67,False
6148,'Widget 6148',15.0,True
6149,'Widget 6149',17.33,False
6150,'Widget 6150',19.67,True
6151,'Widget 6151',22.0,False
6152,'Widget 6152',24.33,True
6153,'Widget 6153',26.67,False
6154,'Widget 6154',29.0,True
6155,'Widget 6155',31.33,False
6156,'Widget 6156',33.67,True
6157,'Widget 6157',36.0,False
6158,'Widget 6158',38.33,True
6159,'Widget 6159',40.67,False
6160,'Widget 6160',43.0,True
6161,'Widget 6161',45.33,False
6162,'Widget 6162',47.67,True
6163,'Widget 6163',50.0,False
6164,'Widget 6164',52.33,True
6165,'Widget 6165',54.67,False
6166,'Widget 6166',57.0,True
6167,'Widget 6167',59.33,False
6168,'Widget 6168',61.67,True
6169,'Widget 6169',64.0,False
6170,'Widget 6170',66.33,True
6171,'Widget 6171',68.67,False
6172,'Widget 6172',71.0,True
6173,'Widget 6173',73.33,False
6174,'Widget 6174',75.67,True
6175,'Widget 6175',78.0,False
6176,'Widget 6176',80.33,True
6177,'Widget 6177',82.67,False
6178,'Widget 6178',85.0,True
6179,'Widget 6179',87.33,False
6180,'Widget 6180',89.67,True
6181,'Widget 6181',92.0,False
6182,'Widget 6182',94.33,True
6183,'Widget 6183',96.67,False
6184,'Widget 6184',99.0,True
6185,'Widget 6185',101.33,False
6186,'Widget 6186',103.67,True
6187,'Widget 6187',106.0,False
6188,'Widget 6188',108.33,True
6189,'Widget 6189',110.67,False
6190,'Widget 6190',113.0,True
6191,'Widget 6191',115.33,False
6192,'Widget 6192',117.67,True
6193,'Widget 6193',120.0,False
6194,'Widget 6194',122.33,True
6195,'Widget 6195',124.67,False
6196,'Widget 6196',127.0,True
6197,'Widget 6197',129.33,False
6198,'Widget 6198',131.67,True
6199,'Widget 6199',134.0,False
6200,'Widget 6200',136.33,True
6201,'Widget 6201',138.67,False
6202,'Widget 6202',141.0,True
6203,'Widget 6203',143.33,False
6204,'Widget 6204',145.67,True
6205,'Widget 6205',148.0,False
6206,'Widget 6206',150.33,True
6207,'Widget 6207',152.67,False
6208,'Widget 6208',155.0,True
6209,'Widget 6209',157.33,False
6210,'Widget 6210',159.67,True
6211,'Widget 6211',162.0,False
6212,'Widget 6212',164.33,True
6213,'Widget 6213',166.67,False
6214,'Widget 6214',169.0,True
6215,'Widget 6215',4.67,False
6216,'Widget 6216',7.0,True
6217,'Widget 6217',9.33,False
6218,'Widget 6218',11.67,True
6219,'Widget 6219',14.0,False
6220,'Widget 6220',16.33,True
6221,'Widget 6221',18.67,False
6222,'Widget 6222',21.0,True
6223,'Widget 6223',23.33,False
6224,'Widget 6224',25.67,True
6225,'Widget 6225',28.0,False
6226,'Widget 6226',30.33,True
6227,'Widget 6227',32.67,False
6228,'Widget 6228',35.0,True
6229,'Widget 6229',37.33,False
6230,'Widget 6230',39.67,True
6231,'Widget 6231',42.0,False
6232,'Widget 6232',44.33,True
6233,'Widget 6233',46.67,False
6234,'Widget 6234',49.0,True
6235,'Widget 6235',51.33,False
6236,'Widget 6236',53.67,True
6237,'Widget 6237',56.0,False
6238,'Widget 6238',58.33,True
6239,'Widget 6239',60.67,False
6240,'Widget 6240',63.0,True
6241,'Widget 6241',65.33,False
6242,'Widget 6242',67.67,True
6243,'Widget 6243',70.0,False
6244,'Widget 6244',72.33,True
6245,'Widget 6245',74.67,False
6246,'Widget 6246',77.0,True
6247,'Widget 6247',79.33,False
6248,'Widget 6248',81.67,True
6249,'Widget 6249',84.0,False
6250,'Widget 6250',86.33,True
6251,'Widget 6251',88.67,False
6252,'Widget 6252',91.0,True
6253,'Widget 6253',93.33,False
6254,'Widget 6254',95.67,True
6255,'Widget 6255',98.0,False
6256,'Widget 6256',100.33,True
6257,'Widget 6257',102.67,False
6258,'Widget 6258',105.0,True
6259,'Widget 6259',107.33,False
6260,'Widget 6260',109.67,True
6261,'Widget 6261',112.0,False
6262,'Widget 6262',114.33,True
6263,'Widget 6263',116.67,False
6264,'Widget 6264',119.0,True
6265,'Widget 6265',121.33,False
6266,'Widget 6266',123.67,True
6267,'Widget 6267',126.0,False
6268,'Widget 6268',128.33,True
6269,'Widget 6269',130.67,False
6270,'Widget 6270',133.0,True
6271,'Widget 6271',135.33,False
6272,'Widget 6272',137.67,True
6273,'Widget 6273',140.0,False
6274,'Widget 6274',142.33,True
6275,'Widget 6275',144.67,False
6276,'Widget 6276',147.0,True
6277,'Widget 6277',149.33,False
6278,'Widget 6278',151.67,True
6279,'Widget 6279',154.0,False
6280,'Widget 6280',156.33,True
6281,'Widget 6281',158.67,False
6282,'Widget 6282',161.0,True
6283,'Widget 6283',163.33,False
6284,'Widget 6284',165.67,True
6285,'Widget 6285',168.0,False
6286,'Widget 6286',3.67,True
6287,'Widget 6287',6.0,False
6288,'Widget 6288',8.33,True
6289,'Widget 6289',10.67,False
6290,'Widget 6290',13.0,True
6291,'Widget 6291',15.33,False
6292,'Widget 6292',17.67,True
6293,'Widget 6293',20.0,False
6294,'Widget 6294',22.33,True
6295,'Widget 6295',24.67,False
6296,'Widget 6296',27.0,True
6297,'Widget 6297',29.33,False
6298,'Widget 6298',31.67,True
6299,'Widget 6299',34.0,False
6300,'Widget 6300',36.33,True
6301,'Widget 6301',38.67,False
6302,'Widget 6302',41.0,True
6303,'Widget 6303',43.33,False
6304,'Widget 6304',45.67,True
6305,'Widget 6305',48.0,False
6306,'Widget 6306',50.33,True
6307,'Widget 6307',52.67,False
6308,'Widget 6308',55.0,True
6309,'Widget 6309',57.33,False
6310,'Widget 6310',59.67,True
6311,'Widget 6311',62.0,False
6312,'Widget 6312',64.33,True
6313,'Widget 6313',66.67,False
6314,'Widget 6314',69.0,True
6315,'Widget 6315',71.33,False
6316,'Widget 6316',73.67,True
6317,'Widget 6317',76.0,False
6318,'Widget 6318',78.33,True
6319,'Widget 6319',80.67,False
6320,'Widget 6320',83.0,True
6321,'Widget 6321',85.33,False
6322,'Widget 6322',87.67,True
6323,'Widget 6323',90.0,False
6324,'Widget 6324',92.33,True
6325,'Widget 6325',94.67,False
6326,'Widget 6326',97.0,True
6327,'Widget 6327',99.33,False
6328,'Widget 6328',101.67,True
6329,'Widget 6329',104.0,False
6330,'Widget 6330',106.33,True
6331,'Widget 6331',108.67,False
6332,'Widget 6332',111.0,True
6333,'Widget 6333',113.33,False
6334,'Widget 6334',115.67,True
6335,'Widget 6335',118.0,False
6336,'Widget 6336',120.33,True
6337,'Widget 6337',122.67,False
6338,'Widget 6338',125.0,True
6339,'Widget 6339',127.33,False
6340,'Widget 6340',129.67,True
6341,'Widget 6341',132.0,False
6342,'Widget 6342',134.33,True
6343,'Widget 6343',136.67,False
6344,'Widget 6344',139.0,True
6345,'Widget 6345',141.33,False
6346,'Widget 6346',143.67,True
6347,'Widget 6347',146.0,False
6348,'Widget 6348',148.33,True
6349,'Widget 6349',150.67,False
6350,'Widget 6350',153.0,True
6351,'Widget 6351',155.33,False
6352,'Widget 6352',157.67,True
6353,'Widget 6353',160.0,False
6354,'Widget 6354',162.33,True
6355,'Widget 6355',164.67,False
6356,'Widget 6356',167.0,True
6357,'Widget 6357',169.33,False
6358,'Widget 6358',5.0,True
6359,'Widget 6359',7.33,False
6360,'Widget 6360',9.67,True
6361,'Widget 6361',12.0,False
6362,'Widget 6362',14.33,True
6363,'Widget 6363',16.67,False
6364,'Widget 6364',19.0,True
6365,'Widget 6365',21.33,False
6366,'Widget 6366',23.67,True
6367,'Widget 6367',26.0,False
6368,'Widget 6368',28.33,True
6369,'Widget 6369',30.67,False
6370,'Widget 6370',33.0,True
6371,'Widget 6371',35.33,False
6372,'Widget 6372',37.67,True
6373,'Widget 6373',40.0,False
6374,'Widget 6374',42.33,True
6375,'Widget 6375',44.67,False
6376,'Widget 6376',47.0,True
6377,'Widget 6377',49.33,False
6378,'Widget 6378',51.67,True
6379,'Widget 6379',54.0,False
6380,'Widget 6380',56.33,True
6381,'Widget 6381',58.67,False
6382,'Widget 6382',61.0,True
6383,'Widget 6383',63.33,False
6384,'Widget 6384',65.67,True
6385,'Widget 6385',68.0,False
6386,'Widget 6386',70.33,True
6387,'Widget 6387',72.67,False
6388,'Widget 6388',75.0,True
6389,'Widget 6389',77.33,False
6390,'Widget 6390',79.67,True
6391,'Widget 6391',82.0,False
6392,'Widget 6392',84.33,True
6393,'Widget 6393',86.67,False
6394,'Widget 6394',89.0,True
6395,'Widget 6395',91.33,False
6396,'Widget 6396',93.67,True
6397,'Widget 6397',96.0,False
6398,'Widget 6398',98.33,True
6399,'Widget 6399',100.67,False
6400,'Widget 6400',103.0,True
6401,'Widget 6401',105.33,False
6402,'Widget 6402',107.67,True
6403,'Widget 6403',110.0,False
6404,'Widget 6404',112.33,True
6405,'Widget 6405',114.67,False
6406,'Widget 6406',117.0,True
6407,'Widget 6407',119.33,False
6408,'Widget 6408',121.67,True
6409,'Widget 6409',124.0,False
6410,'Widget 6410',126.33,True
6411,'Widget 6411',128.67,False
6412,'Widget 6412',131.0,True
6413,'Widget 6413',133.33,False
6414,'Widget 6414',135.67,True
6415,'Widget 6415',138.0,False
6416,'Widget 6416',140.33,True
6417,'Widget 6417',142.67,False
6418,'Widget 6418',145.0,True
6419,'Widget 6419',147.33,False
6420,'Widget 6420',149.67,True
6421,'Widget 6421',152.0,False
6422,'Widget 6422',154.33,True
6423,'Widget 6423',156.67,False
6424,'Widget 6424',159.0,True
6425,'Widget 6425',161.33,False
6426,'Widget 6426',163.67,True
6427,'Widget 6427',166.0,False
6428,'Widget 6428',168.33,True
6429,'Widget 6429',4.0,False
6430,'Widget 6430',6.33,True
6431,'Widget 6431',8.67,False
6432,'Widget 6432',11.0,True
6433,'Widget 6433',13.33,False
6434,'Widget 6434',15.67,True
6435,'Widget 6435',18.0,False
6436,'Widget 6436',20.33,True
6437,'Widget 6437',22.67,False
6438,'Widget 6438',25.0,True
6439,'Widget 6439',27.33,False
6440,'Widget 6440',29.67,True
6441,'Widget 6441',32.0,False
6442,'Widget 6442',34.33,True
6443,'Widget 6443',36.67,False
6444,'Widget 6444',39.0,True
6445,'Widget 6445',41.33,False
6446,'Widget 6446',43.67,True
6447,'Widget 6447',46.0,False
6448,'Widget 6448',48.33,True
6449,'Widget 6449',50.67,False
6450,'Widget 6450',53.0,True
6451,'Widget 6451',55.33,False
6452,'Widget 6452',57.67,True
6453,'Widget 6453',60.0,False
6454,'Widget 6454',62.33,True
6455,'Widget 6455',64.67,False
6456,'Widget 6456',67.0,True
6457,'Widget 6457',69.33,False
6458,'Widget 6458',71.67,True
6459,'Widget 6459',74.0,False
6460,'Widget 6460',76.33,True
6461,'Widget 6461',78.67,False
6462,'Widget 6462',81.0,True
6463,'Widget 6463',83.33,False
6464,'Widget 6464',85.67,True
6465,'Widget 6465',88.0,False
6466,'Widget 6466',90.33,True
6467,'Widget 6467',92.67,False
6468,'Widget 6468',95.0,True
6469,'Widget 6469',97.33,False
6470,'Widget 6470',99.67,True
6471,'Widget 6471',102.0,False
6472,'Widget 6472',104.33,True
6473,'Widget 6473',106.67,False
6474,'Widget 6474',109.0,True
6475,'Widget 6475',111.33,False
6476,'Widget 6476',113.67,True
6477,'Widget 6477',116.0,False
6478,'Widget 6478',118.33,True
6479,'Widget 6479',120.67,False
6480,'Widget 6480',123.0,True
6481,'Widget 6481',125.33,False
6482,'Widget 6482',127.67,True
6483,'Widget 6483',130.0,False
6484,'Widget 6484',132.33,True
6485,'Widget 6485',134.67,False
6486,'Widget 6486',137.0,True
6487,'Widget 6487',139.33,False
6488,'Widget 6488',141.67,True
6489,'Widget 6489',144.0,False
6490,'Widget 6490',146.33,True
6491,'Widget 6491',148.67,False
6492,'Widget 6492',151.0,True
6493,'Widget 6493',153.33,False
6494,'Widget 6494',155.67,True
6495,'Widget 6495',158.0,False
6496,'Widget 6496',160.33,True
6497,'Widget 6497',162.67,False
6498,'Widget 6498',165.0,True
6499,'Widget 6499',167.33,False
6500,'Widget 6500',3.0,True
6501,'Widget 6501',5.33,False
6502,'Widget 6502',7.67,True
6503,'Widget 6503',10.0,False
6504,'Widget 6504',12.33,True
6505,'Widget 6505',14.67,False
6506,'Widget 6506',17.0,True
6507,'Widget 6507',19.33,False
6508,'Widget 6508',21.67,True
6509,'Widget 6509',24.0,False
6510,'Widget 6510',26.33,True
6511,'Widget 6511',28.67,False
6512,'Widget 6512',31.0,True
6513,'Widget 6513',33.33,False
6514,'Widget 6514',35.67,True
6515,'Widget 6515',38.0,False
6516,'Widget 6516',40.33,True
6517,'Widget 6517',42.67,False
6518,'Widget 6518',45.0,True
6519,'Widget 6519',47.33,False
6520,'Widget 6520',49.67,True
6521,'Widget 6521',52.0,False
6522,'Widget 6522',54.33,True
6523,'Widget 6523',56.67,False
6524,'Widget 6524',59.0,True
6525,'Widget 6525',61.33,False
6526,'Widget 6526',63.67,True
6527,'Widget 6527',66.0,False
6528,'Widget 6528',68.33,True
6529,'Widget 6529',70.67,False
6530,'Widget 6530',73.0,True
6531,'Widget 6531',75.33,False
6532,'Widget 6532',77.67,True
6533,'Widget 6533',80.0,False
6534,'Widget 6534',82.33,True
6535,'Widget 6535',84.67,False
6536,'Widget 6536',87.0,True
6537,'Widget 6537',89.33,False
6538,'Widget 6538',91.67,True
6539,'Widget 6539',94.0,False
6540,'Widget 6540',96.33,True
6541,'Widget 6541',98.67,False
6542,'Widget 6542',101.0,True
6543,'Widget 6543',103.33,False
6544,'Widget 6544',105.67,True
6545,'Widget 6545',108.0,False
6546,'Widget 6546',110.33,True
6547,'Widget 6547',112.67,False
6548,'Widget 6548',115.0,True
6549,'Widget 6549',117.33,False
6550,'Widget 6550',119.67,True
6551,'Widget 6551',122.0,False
6552,'Widget 6552',124.33,True
6553,'Widget 6553',126.67,False
6554,'Widget 6554',129.0,True
6555,'Widget 6555',131.33,False
6556,'Widget 6556',133.67,True
6557,'Widget 6557',136.0,False
6558,'Widget 6558',138.33,True
6559,'Widget 6559',140.67,False
6560,'Widget 6560',143.0,True
6561,'Widget 6561',145.33,False
6562,'Widget 6562',147.67,True
6563,'Widget 6563',150.0,False
6564,'Widget 6564',152.33,True
6565,'Widget 6565',154.67,False
6566,'Widget 6566',157.0,True
6567,'Widget 6567',159.33,False
6568,'Widget 6568',161.67,True
6569,'Widget 6569',164.0,False
6570,'Widget 6570',166.33,True
6571,'Widget 6571',168.67,False
6572,'Widget 6572',4.33,True
6573,'Widget 6573',6.67,False
6574,'Widget 6574',9.0,True
6575,'Widget 6575',11.33,False
6576,'Widget 6576',13.67,True
6577,'Widget 6577',16.0,False
6578,'Widget 6578',18.33,True
6579,'Widget 6579',20.67,False
6580,'Widget 6580',23.0,True
6581,'Widget 6581',25.33,False
6582,'Widget 6582',27.67,True
6583,'Widget 6583',30.0,False
6584,'Widget 6584',32.33,True
6585,'Widget 6585',34.67,False
6586,'Widget 6586',37.0,True
6587,'Widget 6587',39.33,False
6588,'Widget 6588',41.67,True
6589,'Widget 6589',44.0,False
6590,'Widget 6590',46.33,True
6591,'Widget 6591',48.67,False
6592,'Widget 6592',51.0,True
6593,'Widget 6593',53.33,False
6594,'Widget 6594',55.67,True
6595,'Widget 6595',58.0,False
6596,'Widget 6596',60.33,True
6597,'Widget 6597',62.67,False
6598,'Widget 6598',65.0,True
6599,'Widget 6599',67.33,False
6600,'Widget 6600',69.67,True
6601,'Widget 6601',72.0,False
6602,'Widget 6602',74.33,True
6603,'Widget 6603',76.67,False
6604,'Widget 6604',79.0,True
6605,'Widget 6605',81.33,False
6606,'Widget 6606',83.67,True
6607,'Widget 6607',86.0,False
6608,'Widget 6608',88.33,True
6609,'Widget 6609',90.67,False
6610,'Widget 6610',93.0,True
6611,'Widget 6611',95.33,False
6612,'Widget 6612',97.67,True
6613,'Widget 6613',100.0,False
6614,'Widget 6614',102.33,True
6615,'Widget 6615',104.67,False
6616,'Widget 6616',107.0,True
6617,'Widget 6617',109.33,False
6618,'Widget 6618',111.67,True
6619,'Widget 6619',114.0,False
6620,'Widget 6620',116.33,True
6621,'Widget 6621',118.67,False
6622,'Widget 6622',121.0,True
6623,'Widget 6623',123.33,False
6624,'Widget 6624',125.67,True
6625,'Widget 6625',128.0,False
6626,'Widget 6626',130.33,True
6627,'Widget 6627',132.67,False
6628,'Widget 6628',135.0,True
6629,'Widget 6629',137.33,False
6630,'Widget 6630',139.67,True
6631,'Widget 6631',142.0,False
6632,'Widget 6632',144.33,True
6633,'Widget 6633',146.67,False
6634,'Widget 6634',149.0,True
6635,'Widget 6635',151.33,False
6636,'Widget 6636',153.67,True
6637,'Widget 6637',156.0,False
6638,'Widget 6638',158.33,True
6639,'Widget 6639',160.67,False
6640,'Widget 6640',163.0,True
6641,'Widget 6641',165.33,False
6642,'Widget 6642',167.67,True
6643,'Widget 6643',3.33,False
6644,'Widget 6644',5.67,True
6645,'Widget 6645',8.0,False
6646,'Widget 6646',10.33,True
6647,'Widget 6647',12.67,False
6648,'Widget 6648',15.0,True
6649,'Widget 6649',17.33,False
6650,'Widget 6650',19.67,True
6651,'Widget 6651',22.0,False
6652,'Widget 6652',24.33,True
6653,'Widget 6653',26.67,False
6654,'Widget 6654',29.0,True
6655,'Widget 6655',31.33,False
6656,'Widget 6656',33.67,True
6657,'Widget 6657',36.0,False
6658,'Widget 6658',38.33,True
6659,'Widget 6659',40.67,False
6660,'Widget 6660',43.0,True
6661,'Widget 6661',45.33,False
6662,'Widget 6662',47.67,True
6663,'Widget 6663',50.0,False
6664,'Widget 6664',52.33,True
6665,'Widget 6665',54.67,False
6666,'Widget 6666',57.0,True
6667,'Widget 6667',59.33,False
6668,'Widget 6668',61.67,True
6669,'Widget 6669',64.0,False
6670,'Widget 6670',66.33,True
6671,'Widget 6671',68.67,False
6672,'Widget 6672',71.0,True
6673,'Widget 6673',73.33,False
6674,'Widget 6674',75.67,True
6675,'Widget 6675',78.0,False
6676,'Widget 6676',80.33,True
6677,'Widget 6677',82.67,False
6678,'Widget 6678',85.0,True
6679,'Widget 6679',87.33,False
6680,'Widget 6680',89.67,True
6681,'Widget 6681',92.0,False
6682,'Widget 6682',94.33,True
6683,'Widget 6683',96.67,False
6684,'Widget 6684',99.0,True
6685,'Widget 6685',101.33,False
6686,'Widget 6686',103.67,True
6687,'Widget 6687',106.0,False
6688,'Widget 6688',108.33,True
6689,'Widget 6689',110.67,False
6690,'Widget 6690',113.0,True
6691,'Widget 6691',115.33,False
6692,'Widget 6692',117.67,True
6693,'Widget 6693',120.0,False
6694,'Widget 6694',122.33,True
6695,'Widget 6695',124.67,False
6696,'Widget 6696',127.0,True
6697,'Widget 6697',129.33,False
6698,'Widget 6698',131.67,True
6699,'Widget 6699',134.0,False
6700,'Widget 6700',136.33,True
6701,'Widget 6701',138.67,False
6702,'Widget 6702',141.0,True
6703,'Widget 6703',143.33,False
6704,'Widget 6704',145.67,True
6705,'Widget 6705',148.0,False
6706,'Widget 6706',150.33,True
6707,'Widget 6707',152.67,False
6708,'Widget 6708',155.0,True
6709,'Widget 6709',157.33,False
6710,'Widget 6710',159.67,True
6711,'Widget 6711',162.0,False
6712,'Widget 6712',164.33,True
6713,'Widget 6713',166.67,False
6714,'Widget 6714',169.0,True
6715,'Widget 6715',4.67,False
6716,'Widget 6716',7.0,True
6717,'Widget 6717',9.33,False
6718,'Widget 6718',11.67,True
6719,'Widget 6719',14.0,False
6720,'Widget 6720',16.33,True
6721,'Widget 6721',18.67,False
6722,'Widget 6722',21.0,True
6723,'Widget 6723',23.33,False
6724,'Widget 6724',25.67,True
6725,'Widget 6725',28.0,False
6726,'Widget 6726',30.33,True
6727,'Widget 6727',32.67,False
6728,'Widget 6728',35.0,True
6729,'Widget 6729',37.33,False
6730,'Widget 6730',39.67,True
6731,'Widget 6731',42.0,False
6732,'Widget 6732',44.33,True
6733,'Widget 6733',46.67,False
6734,'Widget 6734',49.0,True
6735,'Widget 6735',51.33,False
6736,'Widget 6736',53.67,True
6737,'Widget 6737',56.0,False
6738,'Widget 6738',58.33,True
6739,'Widget 6739',60.67,False
6740,'Widget 6740',63.0,True
6741,'Widget 6741',65.33,False
6742,'Widget 6742',67.67,True
6743,'Widget 6743',70.0,False
6744,'Widget 6744',72.33,True
6745,'Widget 6745',74.67,False
6746,'Widget 6746',77.0,True
6747,'Widget 6747',79.33,False
6748,'Widget 6748',81.67,True
6749,'Widget 6749',84.0,False
6750,'Widget 6750',86.33,True
6751,'Widget 6751',88.67,False
6752,'Widget 6752',91.0,True
6753,'Widget 6753',93.33,False
6754,'Widget 6754',95.67,True
6755,'Widget 6755',98.0,False
6756,'Widget 6756',100.33,True
6757,'Widget 6757',102.67,False
6758,'Widget 6758',105.0,True
6759,'Widget 6759',107.33,False
6760,'Widget 6760',109.67,True
6761,'Widget 6761',112.0,False
6762,'Widget 6762',114.33,True
6763,'Widget 6763',116.67,False
6764,'Widget 6764',119.0,True
6765,'Widget 6765',121.33,False
6766,'Widget 6766',123.67,True
6767,'Widget 6767',126.0,False
6768,'Widget 6768',128.33,True
6769,'Widget 6769',130.67,False
6770,'Widget 6770',133.0,True
6771,'Widget 6771',135.33,False
6772,'Widget 6772',137.67,True
6773,'Widget 6773',140.0,False
6774,'Widget 6774',142.33,True
6775,'Widget 6775',144.67,False
6776,'Widget 6776',147.0,True
6777,'Widget 6777',149.33,False
6778,'Widget 6778',151.67,True
6779,'Widget 6779',154.0,False
6780,'Widget 6780',156.33,True
6781,'Widget 6781',158.67,False
6782,'Widget 6782',161.0,True
6783,'Widget 6783',163.33,False
6784,'Widget 6784',165.67,True
6785,'Widget 6785',168.0,False
6786,'Widget 6786',3.67,True
6787,'Widget 6787',6.0,False
6788,'Widget 6788',8.33,True
6789,'Widget 6789',10.67,False
6790,'Widget 6790',13.0,True
6791,'Widget 6791',15.33,False
6792,'Widget 6792',17.67,True
6793,'Widget 6793',20.0,False
6794,'Widget 6794',22.33,True
6795,'Widget 6795',24.67,False
6796,'Widget 6796',27.0,True
6797,'Widget 6797',29.33,False
6798,'Widget 6798',31.67,True
6799,'Widget 6799',34.0,False
6800,'Widget 6800',36.33,True
6801,'Widget 6801',38.67,False
6802,'Widget 6802',41.0,True
6803,'Widget 6803',43.33,False
6804,'Widget 6804',45.67,True
6805,'Widget 6805',48.0,False
6806,'Widget 6806',50.33,True
6807,'Widget 6807',52.67,False
6808,'Widget 6808',55.0,True
6809,'Widget 6809',57.33,False
6810,'Widget 6810',59.67,True
6811,'Widget 6811',62.0,False
6812,'Widget 6812',64.33,True
6813,'Widget 6813',66.67,False
6814,'Widget 6814',69.0,True
6815,'Widget 6815',71.33,False
6816,'Widget 6816',73.67,True
6817,'Widget 6817',76.0,False
6818,'Widget 6818',78.33,True
6819,'Widget 6819',80.67,False
6820,'Widget 6820',83.0,True
6821,'Widget 6821',85.33,False
6822,'Widget 6822',87.67,True
6823,'Widget 6823',90.0,False
6824,'Widget 6824',92.33,True
6825,'Widget 6825',94.67,False
6826,'Widget 6826',97.0,True
6827,'Widget 6827',99.33,False
6828,'Widget 6828',101.67,True
6829,'Widget 6829',104.0,False
6830,'Widget 6830',106.33,True
6831,'Widget 6831',108.67,False
6832,'Widget 6832',111.0,True
6833,'Widget 6833',113.33,False
6834,'Widget 6834',115.67,True
6835,'Widget 6835',118.0,False
6836,'Widget 6836',120.33,True
6837,'Widget 6837',122.67,False
6838,'Widget 6838',125.0,True
6839,'Widget 6839',127.33,False
6840,'Widget 6840',129.67,True
6841,'Widget 6841',132.0,False
6842,'Widget 6842',134.33,True
6843,'Widget 6843',136.67,False
6844,'Widget 6844',139.0,True
6845,'Widget 6845',141.33,False
6846,'Widget 6846',143.67,True
6847,'Widget 6847',146.0,False
6848,'Widget 6848',148.33,True
6849,'Widget 6849',150.67,False
6850,'Widget 6850',153.0,True
6851,'Widget 6851',155.33,False
6852,'Widget 6852',157.67,True
6853,'Widget 6853',160.0,False
6854,'Widget 6854',162.33,True
6855,'Widget 6855',164.67,False
6856,'Widget 6856',167.0,True
6857,'Widget 6857',169.33,False
6858,'Widget 6858',5.0,True
6859,'Widget 6859',7.33,False
6860,'Widget 6860',9.67,True
6861,'Widget 6861',12.0,False
6862,'Widget 6862',14.33,True
6863,'Widget 6863',16.67,False
6864,'Widget 6864',19.0,True
6865,'Widget 6865',21.33,False
6866,'Widget 6866',23.67,True
6867,'Widget 6867',26.0,False
6868,'Widget 6868',28.33,True
6869,'Widget 6869',30.67,False
6870,'Widget 6870',33.0,True
6871,'Widget 6871',35.33,False
6872,'Widget 6872',37.67,True
6873,'Widget 6873',40.0,False
6874,'Widget 6874',42.33,True
6875,'Widget 6875',44.67,False
6876,'Widget 6876',47.0,True
6877,'Widget 6877',49.33,False
6878,'Widget 6878',51.67,True
6879,'Widget 6879',54.0,False
6880,'Widget 6880',56.33,True
6881,'Widget 6881',58.67,False
6882,'Widget 6882',61.0,True
6883,'Widget 6883',63.33,False
6884,'Widget 6884',65.67,True
6885,'Widget 6885',68.0,False
6886,'Widget 6886',70.33,True
6887,'Widget 6887',72.67,False
6888,'Widget 6888',75.0,True
6889,'Widget 6889',77.33,False
6890,'Widget 6890',79.67,True
6891,'Widget 6891',82.0,False
6892,'Widget 6892',84.33,True
6893,'Widget 6893',86.67,False
6894,'Widget 6894',89.0,True
6895,'Widget 6895',91.33,False
6896,'Widget 6896',93.67,True
6897,'Widget 6897',96.0,False
6898,'Widget 6898',98.33,True
6899,'Widget 6899',100.67,False
6900,'Widget 6900',103.0,True
6901,'Widget 6901',105.33,False
6902,'Widget 6902',107.67,True
6903,'Widget 6903',110.0,False
6904,'Widget 6904',112.33,True
6905,'Widget 6905',114.67,False
6906,'Widget 6906',117.0,True
6907,'Widget 6907',119.33,False
6908,'Widget 6908',121.67,True
6909,'Widget 6909',124.0,False
6910,'Widget 6910',126.33,True
6911,'Widget 6911',128.67,False
6912,'Widget 6912',131.0,True
6913,'Widget 6913',133.33,False
6914,'Widget 6914',135.67,True
6915,'Widget 6915',138.0,False
6916,'Widget 6916',140.33,True
6917,'Widget 6917',142.67,False
6918,'Widget 6918',145.0,True
6919,'Widget 6919',147.33,False
6920,'Widget 6920',149.67,True
6921,'Widget 6921',152.0,False
6922,'Widget 6922',154.33,True
6923,'Widget 6923',156.67,False
6924,'Widget 6924',159.0,True
6925,'Widget 6925',161.33,False
6926,'Widget 6926',163.67,True
6927,'Widget 6927',166.0,False
6928,'Widget 6928',168.33,True
6929,'Widget 6929',4.0,False
6930,'Widget 6930',6.33,True
6931,'Widget 6931',8.67,False
6932,'Widget 6932',11.0,True
6933,'Widget 6933',13.33,False
6934,'Widget 6934',15.67,True
6935,'Widget 6935',18.0,False
6936,'Widget 6936',20.33,True
6937,'Widget 6937',22.67,False
6938,'Widget 6938',25.0,True
6939,'Widget 6939',27.33,False
6940,'Widget 6940',29.67,True
6941,'Widget 6941',32.0,False
6942,'Widget 6942',34.33,True
6943,'Widget 6943',36.67,False
6944,'Widget 6944',39.0,True
6945,'Widget 6945',41.33,False
6946,'Widget 6946',43.67,True
6947,'Widget 6947',46.0,False
6948,'Widget 6948',48.33,True
6949,'Widget 6949',50.67,False
6950,'Widget 6950',53.0,True
6951,'Widget 6951',55.33,False
6952,'Widget 6952',57.67,True
6953,'Widget 6953',60.0,False
6954,'Widget 6954',62.33,True
6955,'Widget 6955',64.67,False
6956,'Widget 6956',67.0,True
6957,'Widget 6957',69.33,False
6958,'Widget 6958',71.67,True
6959,'Widget 6959',74.0,False
6960,'Widget 6960',76.33,True
6961,'Widget 6961',78.67,False
6962,'Widget 6962',81.0,True
6963,'Widget 6963',83.33,False
6964,'Widget 6964',85.67,True
6965,'Widget 6965',88.0,False
6966,'Widget 6966',90.33,True
6967,'Widget 6967',92.67,False
6968,'Widget 6968',95.0,True
6969,'Widget 6969',97.33,False
6970,'Widget 6970',99.67,True
6971,'Widget 6971',102.0,False
6972,'Widget 6972',104.33,True
6973,'Widget 6973',106.67,False
6974,'Widget 6974',109.0,True
6975,'Widget 6975',111.33,False
6976,'Widget 6976',113.67,True
6977,'Widget 6977',116.0,False
6978,'Widget 6978',118.33,True
6979,'Widget 6979',120.67,False
6980,'Widget 6980',123.0,True
6981,'Widget 6981',125.33,False
6982,'Widget 6982',127.67,True
6983,'Widget 6983',130.0,False
6984,'Widget 6984',132.33,True
6985,'Widget 6985',134.67,False
6986,'Widget 6986',137.0,True
6987,'Widget 6987',139.33,False
6988,'Widget 6988',141.67,True
6989,'Widget 6989',144.0,False
6990,'Widget 6990',146.33,True
6991,'Widget 6991',148.67,False
6992,'Widget 6992',151.0,True
6993,'Widget 6993',153.33,False
6994,'Widget 6994',155.67,True
6995,'Widget 6995',158.0,False
6996,'Widget 6996',160.33,True
6997,'Widget 6997',162.67,False
6998,'Widget 6998',165.0,True
6999,'Widget 6999',167.33,False
7000,'Widget 7000',3.0,True
7001,'Widget 7001',5.33,False
7002,'Widget 7002',7.67,True
7003,'Widget 7003',10.0,False
7004,'Widget 7004',12.33,True
7005,'Widget 7005',14.67,False
7006,'Widget 7006',17.0,True
7007,'Widget 7007',19.33,False
7008,'Widget 7008',21.67,True
7009,'Widget 7009',24.0,False
7010,'Widget 7010',26.33,True
7011,'Widget 7011',28.67,False
7012,'Widget 7012',31.0,True
7013,'Widget 7013',33.33,False
7014,'Widget 7014',35.67,True
7015,'Widget 7015',38.0,False
7016,'Widget 7016',40.33,True
7017,'Widget 7017',42.67,False
7018,'Widget 7018',45.0,True
7019,'Widget 7019',47.33,False
7020,'Widget 7020',49.67,True
7021,'Widget 7021',52.0,False
7022,'Widget 7022',54.33,True
7023,'Widget 7023',56.67,False
7024,'Widget 7024',59.0,True
7025,'Widget 7025',61.33,False
7026,'Widget 7026',63.67,True
7027,'Widget 7027',66.0,False
7028,'Widget 7028',68.33,True
7029,'Widget 7029',70.67,False
7030,'Widget 7030',73.0,True
7031,'Widget 7031',75.33,False
7032,'Widget 7032',77.67,True
7033,'Widget 7033',80.0,False
7034,'Widget 7034',82.33,True
7035,'Widget 7035',84.67,False
7036,'Widget 7036',87.0,True
7037,'Widget 7037',89.33,False
7038,'Widget 7038',91.67,True
7039,'Widget 7039',94.0,False
7040,'Widget 7040',96.33,True
7041,'Widget 7041',98.67,False
7042,'Widget 7042',101.0,True
7043,'Widget 7043',103.33,False
7044,'Widget 7044',105.67,True
7045,'Widget 7045',108.0,False
7046,'Widget 7046',110.33,True
7047,'Widget 7047',112.67,False
7048,'Widget 7048',115.0,True
7049,'Widget 7049',117.33,False
7050,'Widget 7050',119.67,True
7051,'Widget 7051',122.0,False
7052,'Widget 7052',124.33,True
7053,'Widget 7053',126.67,False
7054,'Widget 7054',129.0,True
7055,'Widget 7055',131.33,False
7056,'Widget 7056',133.67,True
7057,'Widget 7057',136.0,False
7058,'Widget 7058',138.33,True
7059,'Widget 7059',140.67,False
7060,'Widget 7060',143.0,True
7061,'Widget 7061',145.33,False
7062,'Widget 7062',147.67,True
7063,'Widget 7063',150.0,False
7064,'Widget 7064',152.33,True
7065,'Widget 7065',154.67,False
7066,'Widget 7066',157.0,True
7067,'Widget 7067',159.33,False
7068,'Widget 7068',161.67,True
7069,'Widget 7069',164.0,False
7070,'Widget 7070',166.33,True
7071,'Widget 7071',168.67,False
7072,'Widget 7072',4.33,True
7073,'Widget 7073',6.67,False
7074,'Widget 7074',9.0,True
7075,'Widget 7075',11.33,False
7076,'Widget 7076',13.67,True
7077,'Widget 7077',16.0,False
7078,'Widget 7078',18.33,True
7079,'Widget 7079',20.67,False
7080,'Widget 7080',23.0,True
7081,'Widget 7081',25.33,False
7082,'Widget 7082',27.67,True
7083,'Widget 7083',30.0,False
7084,'Widget 7084',32.33,True
7085,'Widget 7085',34.67,False
7086,'Widget 7086',37.0,True
7087,'Widget 7087',39.33,False
7088,'Widget 7088',41.67,True
7089,'Widget 7089',44.0,False
7090,'Widget 7090',46.33,True
7091,'Widget 7091',48.67,False
7092,'Widget 7092',51.0,True
7093,'Widget 7093',53.33,False
7094,'Widget 7094',55.67,True
7095,'Widget 7095',58.0,False
7096,'Widget 7096',60.33,True
7097,'Widget 7097',62.67,False
7098,'Widget 7098',65.0,True
7099,'Widget 7099',67.33,False
7100,'Widget 7100',69.67,True
7101,'Widget 7101',72.0,False
7102,'Widget 7102',74.33,True
7103,'Widget 7103',76.67,False
7104,'Widget 7104',79.0,True
7105,'Widget 7105',81.33,False
7106,'Widget 7106',83.67,True
7107,'Widget 7107',86.0,False
7108,'Widget 7108',88.33,True
7109,'Widget 7109',90.67,False
7110,'Widget 7110',93.0,True
7111,'Widget 7111',95.33,False
7112,'Widget 7112',97.67,True
7113,'Widget 7113',100.0,False
7114,'Widget 7114',102.33,True
7115,'Widget 7115',104.67,False
7116,'Widget 7116',107.0,True
7117,'Widget 7117',109.33,False
7118,'Widget 7118',111.67,True
7119,'Widget 7119',114.0,False
7120,'Widget 7120',116.33,True
7121,'Widget 7121',118.67,False
7122,'Widget 7122',121.0,True
7123,'Widget 7123',123.33,False
7124,'Widget 7124',125.67,True
7125,'Widget 7125',128.0,False
7126,'Widget 7126',130.33,True
7127,'Widget 7127',132.67,False
7128,'Widget 7128',135.0,True
7129,'Widget 7129',137.33,False
7130,'Widget 7130',139.67,True
7131,'Widget 7131',142.0,False
7132,'Widget 7132',144.33,True
7133,'Widget 7133',146.67,False
7134,'Widget 7134',149.0,True
7135,'Widget 7135',151.33,False
7136,'Widget 7136',153.67,True
7137,'Widget 7137',156.0,False
7138,'Widget 7138',158.33,True
7139,'Widget 7139',160.67,False
7140,'Widget 7140',163.0,True
7141,'Widget 7141',165.33,False
7142,'Widget 7142',167.67,True
7143,'Widget 7143',3.33,False
7144,'Widget 7144',5.67,True
7145,'Widget 7145',8.0,False
7146,'Widget 7146',10.33,True
7147,'Widget 7147',12.67,False
7148,'Widget 7148',15.0,True
7149,'Widget 7149',17.33,False
7150,'Widget 7150',19.67,True
7151,'Widget 7151',22.0,False
7152,'Widget 7152',24.33,True
7153,'Widget 7153',26.67,False
7154,'Widget 7154',29.0,True
7155,'Widget 7155',31.33,False
7156,'Widget 7156',33.67,True
7157,'Widget 7157',36.0,False
7158,'Widget 7158',38.33,True
7159,'Widget 7159',40.67,False
7160,'Widget 7160',43.0,True
7161,'Widget 7161',45.33,False
7162,'Widget 7162',47.67,True
7163,'Widget 7163',50.0,False
7164,'Widget 7164',52.33,True
7165,'Widget 7165',54.67,False
7166,'Widget 7166',57.0,True
7167,'Widget 7167',59.33,False
7168,'Widget 7168',61.67,True
7169,'Widget 7169',64.0,False
7170,'Widget 7170',66.33,True
7171,'Widget 7171',68.67,False
7172,'Widget 7172',71.0,True
7173,'Widget 7173',73.33,False
7174,'Widget 7174',75.67,True
7175,'Widget 7175',78.0,False
7176,'Widget 7176',80.33,True
7177,'Widget 7177',82.67,False
7178,'Widget 7178',85.0,True
7179,'Widget 7179',87.33,False
7180,'Widget 7180',89.67,True
7181,'Widget 7181',92.0,False
7182,'Widget 7182',94.33,True
7183,'Widget 7183',96.67,False
7184,'Widget 7184',99.0,True
7185,'Widget 7185',101.33,False
7186,'Widget 7186',103.67,True
7187,'Widget 7187',106.0,False
7188,'Widget 7188',108.33,True
7189,'Widget 7189',110.67,False
7190,'Widget 7190',113.0,True
7191,'Widget 7191',115.33,False
7192,'Widget 7192',117.67,True
7193,'Widget 7193',120.0,False
7194,'Widget 7194',122.33,True
7195,'Widget 7195',124.67,False
7196,'Widget 7196',127.0,True
7197,'Widget 7197',129.33,False
7198,'Widget 7198',131.67,True
7199,'Widget 7199',134.0,False
7200,'Widget 7200',136.33,True
7201,'Widget 7201',138.67,False
7202,'Widget 7202',141.0,True
7203,'Widget 7203',143.33,False
7204,'Widget 7204',145.67,True
7205,'Widget 7205',148.0,False
7206,'Widget 7206',150.33,True
7207,'Widget 7207',152.67,False
7208,'Widget 7208',155.0,True
7209,'Widget 7209',157.33,False
7210,'Widget 7210',159.67,True
7211,'Widget 7211',162.0,False
7212,'Widget 7212',164.33,True
7213,'Widget 7213',166.67,False
7214,'Widget 7214',169.0,True
7215,'Widget 7215',4.67,False
7216,'Widget 7216',7.0,True
7217,'Widget 7217',9.33,False
7218,'Widget 7218',11.67,True
7219,'Widget 7219',14.0,False
7220,'Widget 7220',16.33,True
7221,'Widget 7221',18.67,False
7222,'Widget 7222',21.0,True
7223,'Widget 7223',23.33,False
7224,'Widget 7224',25.67,True
7225,'Widget 7225',28.0,False
7226,'Widget 7226',30.33,True
7227,'Widget 7227',32.67,False
7228,'Widget 7228',35.0,True
7229,'Widget 7229',37.33,False
7230,'Widget 7230',39.67,True
7231,'Widget 7231',42.0,False
7232,'Widget 7232',44.33,True
7233,'Widget 7233',46.67,False
7234,'Widget 7234',49.0,True
7235,'Widget 7235',51.33,False
7236,'Widget 7236',53.67,True
7237,'Widget 7237',56.0,False
7238,'Widget 7238',58.33,True
7239,'Widget 7239',60.67,False
7240,'Widget 7240',63.0,True
7241,'Widget 7241',65.33,False
7242,'Widget 7242',67.67,True
7243,'Widget 7243',70.0,False
7244,'Widget 7244',72.33,True
7245,'Widget 7245',74.67,False
7246,'Widget 7246',77.0,True
7247,'Widget 7247',79.33,False
7248,'Widget 7248',81.67,True
7249,'Widget 7249',84.0,False
7250,'Widget 7250',86.33,True
7251,'Widget 7251',88.67,False
7252,'Widget 7252',91.0,True
7253,'Widget 7253',93.33,False
7254,'Widget 7254',95.67,True
7255,'Widget 7255',98.0,False
7256,'Widget 7256',100.33,True
7257,'Widget 7257',102.67,False
7258,'Widget 7258',105.0,True
7259,'Widget 7259',107.33,False
7260,'Widget 7260',109.67,True
7261,'Widget 7261',112.0,False
7262,'Widget 7262',114.33,True
7263,'Widget 7263',116.67,False
7264,'Widget 7264',119.0,True
7265,'Widget 7265',121.33,False
7266,'Widget 7266',123.67,True
7267,'Widget 7267',126.0,False
7268,'Widget 7268',128.33,True
7269,'Widget 7269',130.67,False
7270,'Widget 7270',133.0,True
7271,'Widget 7271',135.33,False
7272,'Widget 7272',137.67,True
7273,'Widget 7273',140.0,False
7274,'Widget 7274',142.33,True
7275,'Widget 7275',144.67,False
7276,'Widget 7276',147.0,True
7277,'Widget 7277',149.33,False
7278,'Widget 7278',151.67,True
7279,'Widget 7279',154.0,False
7280,'Widget 7280',156.33,True
7281,'Widget 7281',158.67,False
7282,'Widget 7282',161.0,True
7283,'Widget 7283',163.33,False
7284,'Widget 7284',165.67,True
7285,'Widget 7285',168.0,False
7286,'Widget 7286',3.67,True
7287,'Widget 7287',6.0,False
7288,'Widget 7288',8.33,True
7289,'Widget 7289',10.67,False
7290,'Widget 7290',13.0,True
7291,'Widget 7291',15.33,False
7292,'Widget 7292',17.67,True
7293,'Widget 7293',20.0,False
7294,'Widget 7294',22.33,True
7295,'Widget 7295',24.67,False
7296,'Widget 7296',27.0,True
7297,'Widget 7297',29.33,False
7298,'Widget 7298',31.67,True
7299,'Widget 7299',34.0,False
7300,'Widget 7300',36.33,True
7301,'Widget 7301',38.67,False
7302,'Widget 7302',41.0,True
7303,'Widget 7303',43.33,False
7304,'Widget 7304',45.67,True
7305,'Widget 7305',48.0,False
7306,'Widget 7306',50.33,True
7307,'Widget 7307',52.67,False
7308,'Widget 7308',55.0,True
7309,'Widget 7309',57.33,False
7310,'Widget 7310',59.67,True
7311,'Widget 7311',62.0,False
7312,'Widget 7312',64.33,True
7313,'Widget 7313',66.67,False
7314,'Widget 7314',69.0,True
7315,'Widget 7315',71.33,False
7316,'Widget 7316',73.67,True
7317,'Widget 7317',76.0,False
7318,'Widget 7318',78.33,True
7319,'Widget 7319',80.67,False
7320,'Widget 7320',83.0,True
7321,'Widget 7321',85.33,False
7322,'Widget 7322',87.67,True
7323,'Widget 7323',90.0,False
7324,'Widget 7324',92.33,True
7325,'Widget 7325',94.67,False
7326,'Widget 7326',97.0,True
7327,'Widget 7327',99.33,False
7328,'Widget 7328',101.67,True
7329,'Widget 7329',104.0,False
7330,'Widget 7330',106.33,True
7331,'Widget 7331',108.67,False
7332,'Widget 7332',111.0,True
7333,'Widget 7333',113.33,False
7334,'Widget 7334',115.67,True
7335,'Widget 7335',118.0,False
7336,'Widget 7336',120.33,True
7337,'Widget 7337',122.67,False
7338,'Widget 7338',125.0,True
7339,'Widget 7339',127.33,False
7340,'Widget 7340',129.67,True
7341,'Widget 7341',132.0,False
7342,'Widget 7342',134.33,True
7343,'Widget 7343',136.67,False
7344,'Widget 7344',139.0,True
7345,'Widget 7345',141.33,False
7346,'Widget 7346',143.67,True
7347,'Widget 7347',146.0,False
7348,'Widget 7348',148.33,True
7349,'Widget 7349',150.67,False
7350,'Widget 7350',153.0,True
7351,'Widget 7351',155.33,False
7352,'Widget 7352',157.67,True
7353,'Widget 7353',160.0,False
7354,'Widget 7354',162.33,True
7355,'Widget 7355',164.67,False
7356,'Widget 7356',167.0,True
7357,'Widget 7357',169.33,False
7358,'Widget 7358',5.0,True
7359,'Widget 7359',7.33,False
7360,'Widget 7360',9.67,True
7361,'Widget 7361',12.0,False
7362,'Widget 7362',14.33,True
7363,'Widget 7363',16.67,False
7364,'Widget 7364',19.0,True
7365,'Widget 7365',21.33,False
7366,'Widget 7366',23.67,True
7367,'Widget 7367',26.0,False
7368,'Widget 7368',28.33,True
7369,'Widget 7369',30.67,False
7370,'Widget 7370',33.0,True
7371,'Widget 7371',35.33,False
7372,'Widget 7372',37.67,True
7373,'Widget 7373',40.0,False
7374,'Widget 7374',42.33,True
7375,'Widget 7375',44.67,False
7376,'Widget 7376',47.0,True
7377,'Widget 7377',49.33,False
7378,'Widget 7378',51.67,True
7379,'Widget 7379',54.0,False
7380,'Widget 7380',56.33,True
7381,'Widget 7381',58.67,False
7382,'Widget 7382',61.0,True
7383,'Widget 7383',63.33,False
7384,'Widget 7384',65.67,True
7385,'Widget 7385',68.0,False
7386,'Widget 7386',70.33,True
7387,'Widget 7387',72.67,False
7388,'Widget 7388',75.0,True
7389,'Widget 7389',77.33,False
7390,'Widget 7390',79.67,True
7391,'Widget 7391',82.0,False
7392,'Widget 7392',84.33,True
7393,'Widget 7393',86.67,False
7394,'Widget 7394',89.0,True
7395,'Widget 7395',91.33,False
7396,'Widget 7396',93.67,True
7397,'Widget 7397',96.0,False
7398,'Widget 7398',98.33,True
7399,'Widget 7399',100.67,False
7400,'Widget 7400',103.0,True
7401,'Widget 7401',105.33,False
7402,'Widget 7402',107.67,True
7403,'Widget 7403',110.0,False
7404,'Widget 7404',112.33,True
7405,'Widget 7405',114.67,False
7406,'Widget 7406',117.0,True
7407,'Widget 7407',119.33,False
7408,'Widget 7408',121.67,True
7409,'Widget 7409',124.0,False
7410,'Widget 7410',126.33,True
7411,'Widget 7411',128.67,False
7412,'Widget 7412',131.0,True
7413,'Widget 7413',133.33,False
7414,'Widget 7414',135.67,True
7415,'Widget 7415',138.0,False
7416,'Widget 7416',140.33,True
7417,'Widget 7417',142.67,False
7418,'Widget 7418',145.0,True
7419,'Widget 7419',147.33,False
7420,'Widget 7420',149.67,True
7421,'Widget 7421',152.0,False
7422,'Widget 7422',154.33,True
7423,'Widget 7423',156.67,False
7424,'Widget 7424',159.0,True
7425,'Widget 7425',161.33,False
7426,'Widget 7426',163.67,True
7427,'Widget 7427',166.0,False
7428,'Widget 7428',168.33,True
7429,'Widget 7429',4.0,False
7430,'Widget 7430',6.33,True
7431,'Widget 7431',8.67,False
7432,'Widget 7432',11.0,True
7433,'Widget 7433',13.33,False
7434,'Widget 7434',15.67,True
7435,'Widget 7435',18.0,False
7436,'Widget 7436',20.33,True
7437,'Widget 7437',22.67,False
7438,'Widget 7438',25.0,True
7439,'Widget 7439',27.33,False
7440,'Widget 7440',29.67,True
7441,'Widget 7441',32.0,False
7442,'Widget 7442',34.33,True
7443,'Widget 7443',36.67,False
7444,'Widget 7444',39.0,True
7445,'Widget 7445',41.33,False
7446,'Widget 7446',43.67,True
7447,'Widget 7447',46.0,False
7448,'Widget 7448',48.33,True
7449,'Widget 7449',50.67,False
7450,'Widget 7450',53.0,True
7451,'Widget 7451',55.33,False
7452,'Widget 7452',57.67,True
7453,'Widget 7453',60.0,False
7454,'Widget 7454',62.33,True
7455,'Widget 7455',64.67,False
7456,'Widget 7456',67.0,True
7457,'Widget 7457',69.33,False
7458,'Widget 7458',71.67,True
7459,'Widget 7459',74.0,False
7460,'Widget 7460',76.33,True
7461,'Widget 7461',78.67,False
7462,'Widget 7462',81.0,True
7463,'Widget 7463',83.33,False
7464,'Widget 7464',85.67,True
7465,'Widget 7465',88.0,False
7466,'Widget 7466',90.33,True
7467,'Widget 7467',92.67,False
7468,'Widget 7468',95.0,True
7469,'Widget 7469',97.33,False
7470,'Widget 7470',99.67,True
7471,'Widget 7471',102.0,False
7472,'Widget 7472',104.33,True
7473,'Widget 7473',106.67,False
7474,'Widget 7474',109.0,True
7475,'Widget 7475',111.33,False
7476,'Widget 7476',113.67,True
7477,'Widget 7477',116.0,False
7478,'Widget 7478',118.33,True
7479,'Widget 7479',120.67,False
7480,'Widget 7480',123.0,True
7481,'Widget 7481',125.33,False
7482,'Widget 7482',127.67,True
7483,'Widget 7483',130.0,False
7484,'Widget 7484',132.33,True
7485,'Widget 7485',134.67,False
7486,'Widget 7486',137.0,True
7487,'Widget 7487',139.33,False
7488,'Widget 7488',141.67,True
7489,'Widget 7489',144.0,False
7490,'Widget 7490',146.33,True
7491,'Widget 7491',148.67,False
7492,'Widget 7492',151.0,True
7493,'Widget 7493',153.33,False
7494,'Widget 7494',155.67,True
7495,'Widget 7495',158.0,False
7496,'Widget 7496',160.33,True
7497,'Widget 7497',162.67,False
7498,'Widget 7498',165.0,True
7499,'Widget 7499',167.33,False
7500,'Widget 7500',3.0,True
7501,'Widget 7501',5.33,False
7502,'Widget 7502',7.67,True
7503,'Widget 7503',10.0,False
7504,'Widget 7504',12.33,True
7505,'Widget 7505',14.67,False
7506,'Widget 7506',17.0,True
7507,'Widget 7507',19.33,False
7508,'Widget 7508',21.67,True
7509,'Widget 7509',24.0,False
7510,'Widget 7510',26.33,True
7511,'Widget 7511',28.67,False
7512,'Widget 7512',31.0,True
7513,'Widget 7513',33.33,False
7514,'Widget 7514',35.67,True
7515,'Widget 7515',38.0,False
7516,'Widget 7516',40.33,True
7517,'Widget 7517',42.67,False
7518,'Widget 7518',45.0,True
7519,'Widget 7519',47.33,False
7520,'Widget 7520',49.67,True
7521,'Widget 7521',52.0,False
7522,'Widget 7522',54.33,True
7523,'Widget 7523',56.67,False
7524,'Widget 7524',59.0,True
7525,'Widget 7525',61.33,False
7526,'Widget 7526',63.67,True
7527,'Widget 7527',66.0,False
7528,'Widget 7528',68.33,True
7529,'Widget 7529',70.67,False
7530,'Widget 7530',73.0,True
7531,'Widget 7531',75.33,False
7532,'Widget 7532',77.67,True
7533,'Widget 7533',80.0,False
7534,'Widget 7534',82.33,True
7535,'Widget 7535',84.67,False
7536,'Widget 7536',87.0,True
7537,'Widget 7537',89.33,False
7538,'Widget 7538',91.67,True
7539,'Widget 7539',94.0,False
7540,'Widget 7540',96.33,True
7541,'Widget 7541',98.67,False
7542,'Widget 7542',101.0,True
7543,'Widget 7543',103.33,False
7544,'Widget 7544',105.67,True
7545,'Widget 7545',108.0,False
7546,'Widget 7546',110.33,True
7547,'Widget 7547',112.67,False
7548,'Widget 7548',115.0,True
7549,'Widget 7549',117.33,False
7550,'Widget 7550',119.67,True
7551,'Widget 7551',122.0,False
7552,'Widget 7552',124.33,True
7553,'Widget 7553',126.67,False
7554,'Widget 7554',129.0,True
7555,'Widget 7555',131.33,False
7556,'Widget 7556',133.67,True
7557,'Widget 7557',136.0,False
7558,'Widget 7558',138.33,True
7559,'Widget 7559',140.67,False
7560,'Widget 7560',143.0,True
7561,'Widget 7561',145.33,False
7562,'Widget 7562',147.67,True
7563,'Widget 7563',150.0,False
7564,'Widget 7564',152.33,True
7565,'Widget 7565',154.67,False
7566,'Widget 7566',157.0,True
7567,'Widget 7567',159.33,False
7568,'Widget 7568',161.67,True
7569,'Widget 7569',164.0,False
7570,'Widget 7570',166.33,True
7571,'Widget 7571',168.67,False
7572,'Widget 7572',4.33,True
7573,'Widget 7573',6.67,False
7574,'Widget 7574',9.0,True
7575,'Widget 7575',11.33,False
7576,'Widget 7576',13.67,True
7577,'Widget 7577',16.0,False
7578,'Widget 7578',18.33,True
7579,'Widget 7579',20.67,False
7580,'Widget 7580',23.0,True
7581,'Widget 7581',25.33,False
7582,'Widget 7582',27.67,True
7583,'Widget 7583',30.0,False
7584,'Widget 7584',32.33,True
7585,'Widget 7585',34.67,False
7586,'Widget 7586',37.0,True
7587,'Widget 7587',39.33,False
7588,'Widget 7588',41.67,True
7589,'Widget 7589',44.0,False
7590,'Widget 7590',46.33,True
7591,'Widget 7591',48.67,False
7592,'Widget 7592',51.0,True
7593,'Widget 7593',53.33,False
7594,'Widget 7594',55.67,True
7595,'Widget 7595',58.0,False
7596,'Widget 7596',60.33,True
7597,'Widget 7597',62.67,False
7598,'Widget 7598',65.0,True
7599,'Widget 7599',67.33,False
7600,'Widget 7600',69.67,True
7601,'Widget 7601',72.0,False
7602,'Widget 7602',74.33,True
7603,'Widget 7603',76.67,False
7604,'Widget 7604',79.0,True
7605,'Widget 7605',81.33,False
7606,'Widget 7606',83.67,True
7607,'Widget 7607',86.0,False
7608,'Widget 7608',88.33,True
7609,'Widget 7609',90.67,False
7610,'Widget 7610',93.0,True
7611,'Widget 7611',95.33,False
7612,'Widget 7612',97.67,True
7613,'Widget 7613',100.0,False
7614,'Widget 7614',102.33,True
7615,'Widget 7615',104.67,False
7616,'Widget 7616',107.0,True
7617,'Widget 7617',109.33,False
7618,'Widget 7618',111.67,True
7619,'Widget 7619',114.0,False
7620,'Widget 7620',116.33,True
7621,'Widget 7621',118.67,False
7622,'Widget 7622',121.0,True
7623,'Widget 7623',123.33,False
7624,'Widget 7624',125.67,True
7625,'Widget 7625',128.0,False
7626,'Widget 7626',130.33,True
7627,'Widget 7627',132.67,False
7628,'Widget 7628',135.0,True
7629,'Widget 7629',137.33,False
7630,'Widget 7630',139.67,True
7631,'Widget 7631',142.0,False
7632,'Widget 7632',144.33,True
7633,'Widget 7633',146.67,False
7634,'Widget 7634',149.0,True
7635,'Widget 7635',151.33,False
7636,'Widget 7636',153.67,True
7637,'Widget 7637',156.0,False
7638,'Widget 7638',158.33,True
7639,'Widget 7639',160.67,False
7640,'Widget 7640',163.0,True
7641,'Widget 7641',165.33,False
7642,'Widget 7642',167.67,True
7643,'Widget 7643',3.33,False
7644,'Widget 7644',5.67,True
7645,'Widget 7645',8.0,False
7646,'Widget 7646',10.33,True
7647,'Widget 7647',12.67,False
7648,'Widget 7648',15.0,True
7649,'Widget 7649',17.33,False
7650,'Widget 7650',19.67,True
7651,'Widget 7651',22.0,False
7652,'Widget 7652',24.33,True
7653,'Widget 7653',26.67,False
7654,'Widget 7654',29.0,True
7655,'Widget 7655',31.33,False
7656,'Widget 7656',33.67,True
7657,'Widget 7657',36.0,False
7658,'Widget 7658',38.33,True
7659,'Widget 7659',40.67,False
7660,'Widget 7660',43.0,True
7661,'Widget 7661',45.33,False
7662,'Widget 7662',47.67,True
7663,'Widget 7663',50.0,False
7664,'Widget 7664',52.33,True
7665,'Widget 7665',54.67,False
7666,'Widget 7666',57.0,True
7667,'Widget 7667',59.33,False
7668,'Widget 7668',61.67,True
7669,'Widget 7669',64.0,False
7670,'Widget 7670',66.33,True
7671,'Widget 7671',68.67,False
7672,'Widget 7672',71.0,True
7673,'Widget 7673',73.33,False
7674,'Widget 7674',75.67,True
7675,'Widget 7675',78.0,False
7676,'Widget 7676',80.33,True
7677,'Widget 7677',82.67,False
7678,'Widget 7678',85.0,True
7679,'Widget 7679',87.33,False
7680,'Widget 7680',89.67,True
7681,'Widget 7681',92.0,False
7682,'Widget 7682',94.33,True
7683,'Widget 7683',96.67,False
7684,'Widget 7684',99.0,True
7685,'Widget 7685',101.33,False
7686,'Widget 7686',103.67,True
7687,'Widget 7687',106.0,False
7688,'Widget 7688',108.33,True
7689,'Widget 7689',110.67,False
7690,'Widget 7690',113.0,True
7691,'Widget 7691',115.33,False
7692,'Widget 7692',117.67,True
7693,'Widget 7693',120.0,False
7694,'Widget 7694',122.33,True
7695,'Widget 7695',124.67,False
7696,'Widget 7696',127.0,True
7697,'Widget 7697',129.33,False
7698,'Widget 7698',131.67,True
7699,'Widget 7699',134.0,False
7700,'Widget 7700',136.33,True
7701,'Widget 7701',138.67,False
7702,'Widget 7702',141.0,True
7703,'Widget 7703',143.33,False
7704,'Widget 7704',145.67,True
7705,'Widget 7705',148.0,False
7706,'Widget 7706',150.33,True
7707,'Widget 7707',152.67,False
7708,'Widget 7708',155.0,True
7709,'Widget 7709',157.33,False
7710,'Widget 7710',159.67,True
7711,'Widget 7711',162.0,False
7712,'Widget 7712',164.33,True
7713,'Widget 7713',166.67,False
7714,'Widget 7714',169.0,True
7715,'Widget 7715',4.67,False
7716,'Widget 7716',7.0,True
7717,'Widget 7717',9.33,False
7718,'Widget 7718',11.67,True
7719,'Widget 7719',14.0,False
7720,'Widget 7720',16.33,True
7721,'Widget 7721',18.67,False
7722,'Widget 7722',21.0,True
7723,'Widget 7723',23.33,False
7724,'Widget 7724',25.67,True
7725,'Widget 7725',28.0,False
7726,'Widget 7726',30.33,True
7727,'Widget 7727',32.67,False
7728,'Widget 7728',35.0,True
7729,'Widget 7729',37.33,False
7730,'Widget 7730',39.67,True
7731,'Widget 7731',42.0,False
7732,'Widget 7732',44.33,True
7733,'Widget 7733',46.67,False
7734,'Widget 7734',49.0,True
7735,'Widget 7735',51.33,False
7736,'Widget 7736',53.67,True
7737,'Widget 7737',56.0,False
7738,'Widget 7738',58.33,True
7739,'Widget 7739',60.67,False
7740,'Widget 7740',63.0,True
7741,'Widget 7741',65.33,False
7742,'Widget 7742',67.67,True
7743,'Widget 7743',70.0,False
7744,'Widget 7744',72.33,True
7745,'Widget 7745',74.67,False
7746,'Widget 7746',77.0,True
7747,'Widget 7747',79.33,False
7748,'Widget 7748',81.67,True
7749,'Widget 7749',84.0,False
7750,'Widget 7750',86.33,True
7751,'Widget 7751',88.67,False
7752,'Widget 7752',91.0,True
7753,'Widget 7753',93.33,False
7754,'Widget 7754',95.67,True
7755,'Widget 7755',98.0,False
7756,'Widget 7756',100.33,True
7757,'Widget 7757',102.67,False
7758,'Widget 7758',105.0,True
7759,'Widget 7759',107.33,False
7760,'Widget 7760',109.67,True
7761,'Widget 7761',112.0,False
7762,'Widget 7762',114.33,True
7763,'Widget 7763',116.67,False
7764,'Widget 7764',119.0,True
7765,'Widget 7765',121.33,False
7766,'Widget 7766',123.67,True
7767,'Widget 7767',126.0,False
7768,'Widget 7768',128.33,True
7769,'Widget 7769',130.67,False
7770,'Widget 7770',133.0,True
7771,'Widget 7771',135.33,False
7772,'Widget 7772',137.67,True
7773,'Widget 7773',140.0,False
7774,'Widget 7774',142.33,True
7775,'Widget 7775',144.67,False
7776,'Widget 7776',147.0,True
7777,'Widget 7777',149.33,False
7778,'Widget 7778',151.67,True
7779,'Widget 7779',154.0,False
7780,'Widget 7780',156.33,True
7781,'Widget 7781',158.67,False
7782,'Widget 7782',161.0,True
7783,'Widget 7783',163.33,False
7784,'Widget 7784',165.67,True
7785,'Widget 7785',168.0,False
7786,'Widget 7786',3.67,True
7787,'Widget 7787',6.0,False
7788,'Widget 7788',8.33,True
7789,'Widget 7789',10.67,False
7790,'Widget 7790',13.0,True
7791,'Widget 7791',15.33,False
7792,'Widget 7792',17.67,True
7793,'Widget 7793',20.0,False
7794,'Widget 7794',22.33,True
7795,'Widget 7795',24.67,False
7796,'Widget 7796',27.0,True
7797,'Widget 7797',29.33,False
7798,'Widget 7798',31.67,True
7799,'Widget 7799',34.0,False
7800,'Widget 7800',36.33,True
7801,'Widget 7801',38.67,False
7802,'Widget 7802',41.0,True
7803,'Widget 7803',43.33,False
7804,'Widget 7804',45.67,True
7805,'Widget 7805',48.0,False
7806,'Widget 7806',50.33,True
7807,'Widget 7807',52.67,False
7808,'Widget 7808',55.0,True
7809,'Widget 7809',57.33,False
7810,'Widget 7810',59.67,True
7811,'Widget 7811',62.0,False
7812,'Widget 7812',64.33,True
7813,'Widget 7813',66.67,False
7814,'Widget 7814',69.0,True
7815,'Widget 7815',71.33,False
7816,'Widget 7816',73.67,True
7817,'Widget 7817',76.0,False
7818,'Widget 7818',78.33,True
7819,'Widget 7819',80.67,False
7820,'Widget 7820',83.0,True
7821,'Widget 7821',85.33,False
7822,'Widget 7822',87.67,True
7823,'Widget 7823',90.0,False
7824,'Widget 7824',92.33,True
7825,'Widget 7825',94.67,False
7826,'Widget 7826',97.0,True
7827,'Widget 7827',99.33,False
7828,'Widget 7828',101.67,True
7829,'Widget 7829',104.0,False
7830,'Widget 7830',106.33,True
7831,'Widget 7831',108.67,False
7832,'Widget 7832',111.0,True
7833,'Widget 7833',113.33,False
7834,'Widget 7834',115.67,True
7835,'Widget 7835',118.0,False
7836,'Widget 7836',120.33,True
7837,'Widget 7837',122.67,False
7838,'Widget 7838',125.0,True
7839,'Widget 7839',127.33,False
7840,'Widget 7840',129.67,True
7841,'Widget 7841',132.0,False
7842,'Widget 7842',134.33,True
7843,'Widget 7843',136.67,False
7844,'Widget 7844',139.0,True
7845,'Widget 7845',141.33,False
7846,'Widget 7846',143.67,True
7847,'Widget 7847',146.0,False
7848,'Widget 7848',148.33,True
7849,'Widget 7849',150.67,False
7850,'Widget 7850',153.0,True
7851,'Widget 7851',155.33,False
7852,'Widget 7852',157.67,True
7853,'Widget 7853',160.0,False
7854,'Widget 7854',162.33,True
7855,'Widget 7855',164.67,False
7856,'Widget 7856',167.0,True
7857,'Widget 7857',169.33,False
7858,'Widget 7858',5.0,True
7859,'Widget 7859',7.33,False
7860,'Widget 7860',9.67,True
7861,'Widget 7861',12.0,False
7862,'Widget 7862',14.33,True
7863,'Widget 7863',16.67,False
7864,'Widget 7864',19.0,True
7865,'Widget 7865',21.33,False
7866,'Widget 7866',23.67,True
7867,'Widget 7867',26.0,False
7868,'Widget 7868',28.33,True
7869,'Widget 7869',30.67,False
7870,'Widget 7870',33.0,True
7871,'Widget 7871',35.33,False
7872,'Widget 7872',37.67,True
7873,'Widget 7873',40.0,False
7874,'Widget 7874',42.33,True
7875,'Widget 7875',44.67,False
7876,'Widget 7876',47.0,True
7877,'Widget 7877',49.33,False
7878,'Widget 7878',51.67,True
7879,'Widget 7879',54.0,False
7880,'Widget 7880',56.33,True
7881,'Widget 7881',58.67,False
7882,'Widget 7882',61.0,True
7883,'Widget 7883',63.33,False
7884,'Widget 7884',65.67,True
7885,'Widget 7885',68.0,False
7886,'Widget 7886',70.33,True
7887,'Widget 7887',72.67,False
7888,'Widget 7888',75.0,True
7889,'Widget 7889',77.33,False
7890,'Widget 7890',79.67,True
7891,'Widget 7891',82.0,False
7892,'Widget 7892',84.33,True
7893,'Widget 7893',86.67,False
7894,'Widget 7894',89.0,True
7895,'Widget 7895',91.33,False
7896,'Widget 7896',93.67,True
7897,'Widget 7897',96.0,False
7898,'Widget 7898',98.33,True
7899,'Widget 7899',100.67,False
7900,'Widget 7900',103.0,True
7901,'Widget 7901',105.33,False
7902,'Widget 7902',107.67,True
7903,'Widget 7903',110.0,False
7904,'Widget 7904',112.33,True
7905,'Widget 7905',114.67,False
7906,'Widget 7906',117.0,True
7907,'Widget 7907',119.33,False
7908,'Widget 7908',121.67,True
7909,'Widget 7909',124.0,False
7910,'Widget 7910',126.33,True
7911,'Widget 7911',128.67,False
7912,'Widget 7912',131.0,True
7913,'Widget 7913',133.33,False
7914,'Widget 7914',135.67,True
7915,'Widget 7915',138.0,False
7916,'Widget 7916',140.33,True
7917,'Widget 7917',142.67,False
7918,'Widget 7918',145.0,True
7919,'Widget 7919',147.33,False
7920,'Widget 7920',149.67,True
7921,'Widget 7921',152.0,False
7922,'Widget 7922',154.33,True
7923,'Widget 7923',156.67,False
7924,'Widget 7924',159.0,True
7925,'Widget 7925',161.33,False
7926,'Widget 7926',163.67,True
7927,'Widget 7927',166.0,False
7928,'Widget 7928',168.33,True
7929,'Widget 7929',4.0,False
7930,'Widget 7930',6.33,True
7931,'Widget 7931',8.67,False
7932,'Widget 7932',11.0,True
7933,'Widget 7933',13.33,False
7934,'Widget 7934',15.67,True
7935,'Widget 7935',18.0,False
7936,'Widget 7936',20.33,True
7937,'Widget 7937',22.67,False
7938,'Widget 7938',25.0,True
7939,'Widget 7939',27.33,False
7940,'Widget 7940',29.67,True
7941,'Widget 7941',32.0,False
7942,'Widget 7942',34.33,True
7943,'Widget 7943',36.67,False
7944,'Widget 7944',39.0,True
7945,'Widget 7945',41.33,False
7946,'Widget 7946',43.67,True
7947,'Widget 7947',46.0,False
7948,'Widget 7948',48.33,True
7949,'Widget 7949',50.67,False
7950,'Widget 7950',53.0,True
7951,'Widget 7951',55.33,False
7952,'Widget 7952',57.67,True
7953,'Widget 7953',60.0,False
7954,'Widget 7954',62.33,True
7955,'Widget 7955',64.67,False
7956,'Widget 7956',67.0,True
7957,'Widget 7957',69.33,False
7958,'Widget 7958',71.67,True
7959,'Widget 7959',74.0,False
7960,'Widget 7960',76.33,True
7961,'Widget 7961',78.67,False
7962,'Widget 7962',81.0,True
7963,'Widget 7963',83.33,False
7964,'Widget 7964',85.67,True
7965,'Widget 7965',88.0,False
7966,'Widget 7966',90.33,True
7967,'Widget 7967',92.67,False
7968,'Widget 7968',95.0,True
7969,'Widget 7969',97.33,False
7970,'Widget 7970',99.67,True
7971,'Widget 7971',102.0,False
7972,'Widget 7972',104.33,True
7973,'Widget 7973',106.67,False
7974,'Widget 7974',109.0,True
7975,'Widget 7975',111.33,False
7976,'Widget 7976',113.67,True
7977,'Widget 7977',116.0,False
7978,'Widget 7978',118.33,True
7979,'Widget 7979',120.67,False
7980,'Widget 7980',123.0,True
7981,'Widget 7981',125.33,False
7982,'Widget 7982',127.67,True
7983,'Widget 7983',130.0,False
7984,'Widget 7984',132.33,True
7985,'Widget 7985',134.67,False
7986,'Widget 7986',137.0,True
7987,'Widget 7987',139.33,False
7988,'Widget 7988',141.67,True
7989,'Widget 7989',144.0,False
7990,'Widget 7990',146.33,True
7991,'Widget 7991',148.67,False
7992,'Widget 7992',151.0,True
7993,'Widget 7993',153.33,False
7994,'Widget 7994',155.67,True
7995,'Widget 7995',158.0,False
7996,'Widget 7996',160.33,True
7997,'Widget 7997',162.67,False
7998,'Widget 7998',165.0,True
7999,'Widget 7999',167.33,False
8000,'Widget 8000',3.0,True
8001,'Widget 8001',5.33,False
8002,'Widget 8002',7.67,True
8003,'Widget 8003',10.0,False
8004,'Widget 8004',12.33,True
8005,'Widget 8005',14.67,False
8006,'Widget 8006',17.0,True
8007,'Widget 8007',19.33,False
8008,'Widget 8008',21.67,True
8009,'Widget 8009',24.0,False
8010,'Widget 8010',26.33,True
8011,'Widget 8011',28.67,False
8012,'Widget 8012',31.0,True
8013,'Widget 8013',33.33,False
8014,'Widget 8014',35.67,True
8015,'Widget 8015',38.0,False
8016,'Widget 8016',40.33,True
8017,'Widget 8017',42.67,False
8018,'Widget 8018',45.0,True
8019,'Widget 8019',47.33,False
8020,'Widget 8020',49.67,True
8021,'Widget 8021',52.0,False
8022,'Widget 8022',54.33,True
8023,'Widget 8023',56.67,False
8024,'Widget 8024',59.0,True
8025,'Widget 8025',61.33,False
8026,'Widget 8026',63.67,True
8027,'Widget 8027',66.0,False
8028,'Widget 8028',68.33,True
8029,'Widget 8029',70.67,False
8030,'Widget 8030',73.0,True
8031,'Widget 8031',75.33,False
8032,'Widget 8032',77.67,True
8033,'Widget 8033',80.0,False
8034,'Widget 8034',82.33,True
8035,'Widget 8035',84.67,False
8036,'Widget 8036',87.0,True
8037,'Widget 8037',89.33,False
8038,'Widget 8038',91.67,True
8039,'Widget 8039',94.0,False
8040,'Widget 8040',96.33,True
8041,'Widget 8041',98.67,False
8042,'Widget 8042',101.0,True
8043,'Widget 8043',103.33,False
8044,'Widget 8044',105.67,True
8045,'Widget 8045',108.0,False
8046,'Widget 8046',110.33,True
8047,'Widget 8047',112.67,False
8048,'Widget 8048',115.0,True
8049,'Widget 8049',117.33,False
8050,'Widget 8050',119.67,True
8051,'Widget 8051',122.0,False
8052,'Widget 8052',124.33,True
8053,'Widget 8053',126.67,False
8054,'Widget 8054',129.0,True
8055,'Widget 8055',131.33,False
8056,'Widget 8056',133.67,True
8057,'Widget 8057',136.0,False
8058,'Widget 8058',138.33,True
8059,'Widget 8059',140.67,False
8060,'Widget 8060',143.0,True
8061,'Widget 8061',145.33,False
8062,'Widget 8062',147.67,True
8063,'Widget 8063',150.0,False
8064,'Widget 8064',152.33,True
8065,'Widget 8065',154.67,False
8066,'Widget 8066',157.0,True
8067,'Widget 8067',159.33,False
8068,'Widget 8068',161.67,True
8069,'Widget 8069',164.0,False
8070,'Widget 8070',166.33,True
8071,'Widget 8071',168.67,False
8072,'Widget 8072',4.33,True
8073,'Widget 8073',6.67,False
8074,'Widget 8074',9.0,True
8075,'Widget 8075',11.33,False
8076,'Widget 8076',13.67,True
8077,'Widget 8077',16.0,False
8078,'Widget 8078',18.33,True
8079,'Widget 8079',20.67,False
8080,'Widget 8080',23.0,True
8081,'Widget 8081',25.33,False
8082,'Widget 8082',27.67,True
8083,'Widget 8083',30.0,False
8084,'Widget 8084',32.33,True
8085,'Widget 8085',34.67,False
8086,'Widget 8086',37.0,True
8087,'Widget 8087',39.33,False
8088,'Widget 8088',41.67,True
8089,'Widget 8089',44.0,False
8090,'Widget 8090',46.33,True
8091,'Widget 8091',48.67,False
8092,'Widget 8092',51.0,True
8093,'Widget 8093',53.33,False
8094,'Widget 8094',55.67,True
8095,'Widget 8095',58.0,False
8096,'Widget 8096',60.33,True
8097,'Widget 8097',62.67,False
8098,'Widget 8098',65.0,True
8099,'Widget 8099',67.33,False
8100,'Widget 8100',69.67,True
8101,'Widget 8101',72.0,False
8102,'Widget 8102',74.33,True
8103,'Widget 8103',76.67,False
8104,'Widget 8104',79.0,True
8105,'Widget 8105',81.33,False
8106,'Widget 8106',83.67,True
8107,'Widget 8107',86.0,False
8108,'Widget 8108',88.33,True
8109,'Widget 8109',90.67,False
8110,'Widget 8110',93.0,True
8111,'Widget 8111',95.33,False
8112,'Widget 8112',97.67,True
8113,'Widget 8113',100.0,False
8114,'Widget 8114',102.33,True
8115,'Widget 8115',104.67,False
8116,'Widget 8116',107.0,True
8117,'Widget 8117',109.33,False
8118,'Widget 8118',111.67,True
8119,'Widget 8119',114.0,False
8120,'Widget 8120',116.33,True
8121,'Widget 8121',118.67,False
8122,'Widget 8122',121.0,True
8123,'Widget 8123',123.33,False
8124,'Widget 8124',125.67,True
8125,'Widget 8125',128.0,False
8126,'Widget 8126',130.33,True
8127,'Widget 8127',132.67,False
8128,'Widget 8128',135.0,True
8129,'Widget 8129',137.33,False
8130,'Widget 8130',139.67,True
8131,'Widget 8131',142.0,False
8132,'Widget 8132',144.33,True
8133,'Widget 8133',146.67,False
8134,'Widget 8134',149.0,True
8135,'Widget 8135',151.33,False
8136,'Widget 8136',153.67,True
8137,'Widget 8137',156.0,False
8138,'Widget 8138',158.33,True
8139,'Widget 8139',160.67,False
8140,'Widget 8140',163.0,True
8141,'Widget 8141',165.33,False
8142,'Widget 8142',167.67,True
8143,'Widget 8143',3.33,False
8144,'Widget 8144',5.67,True
8145,'Widget 8145',8.0,False
8146,'Widget 8146',10.33,True
8147,'Widget 8147',12.67,False
8148,'Widget 8148',15.0,True
8149,'Widget 8149',17.33,False
8150,'Widget 8150',19.67,True
8151,'Widget 8151',22.0,False
8152,'Widget 8152',24.33,True
8153,'Widget 8153',26.67,False
8154,'Widget 8154',29.0,True
8155,'Widget 8155',31.33,False
8156,'Widget 8156',33.67,True
8157,'Widget 8157',36.0,False
8158,'Widget 8158',38.33,True
8159,'Widget 8159',40.67,False
8160,'Widget 8160',43.0,True
8161,'Widget 8161',45.33,False
8162,'Widget 8162',47.67,True
8163,'Widget 8163',50.0,False
8164,'Widget 8164',52.33,True
8165,'Widget 8165',54.67,False
8166,'Widget 8166',57.0,True
8167,'Widget 8167',59.33,False
8168,'Widget 8168',61.67,True
8169,'Widget 8169',64.0,False
8170,'Widget 8170',66.33,True
8171,'Widget 8171',68.67,False
8172,'Widget 8172',71.0,True
8173,'Widget 8173',73.33,False
8174,'Widget 8174',75.67,True
8175,'Widget 8175',78.0,False
8176,'Widget 8176',80.33,True
8177,'Widget 8177',82.67,False
8178,'Widget 8178',85.0,True
8179,'Widget 8179',87.33,False
8180,'Widget 8180',89.67,True
8181,'Widget 8181',92.0,False
8182,'Widget 8182',94.33,True
8183,'Widget 8183',96.67,False
8184,'Widget 8184',99.0,True
8185,'Widget 8185',101.33,False
8186,'Widget 8186',103.67,True
8187,'Widget 8187',106.0,False
8188,'Widget 8188',108.33,True
8189,'Widget 8189',110.67,False
8190,'Widget 8190',113.0,True
8191,'Widget 8191',115.33,False
8192,'Widget 8192',117.67,True
8193,'Widget 8193',120.0,False
8194,'Widget 8194',122.33,True
8195,'Widget 8195',124.67,False
8196,'Widget 8196',127.0,True
8197,'Widget 8197',129.33,False
8198,'Widget 8198',131.67,True
8199,'Widget 8199',134.0,False
8200,'Widget 8200',136.33,True
8201,'Widget 8201',138.67,False
8202,'Widget 8202',141.0,True
8203,'Widget 8203',143.33,False
8204,'Widget 8204',145.67,True
8205,'Widget 8205',148.0,False
8206,'Widget 8206',150.33,True
8207,'Widget 8207',152.67,False
8208,'Widget 8208',155.0,True
8209,'Widget 8209',157.33,False
8210,'Widget 8210',159.67,True
8211,'Widget 8211',162.0,False
8212,'Widget 8212',164.33,True
8213,'Widget 8213',166.67,False
8214,'Widget 8214',169.0,True
8215,'Widget 8215',4.67,False
8216,'Widget 8216',7.0,True
8217,'Widget 8217',9.33,False
8218,'Widget 8218',11.67,True
8219,'Widget 8219',14.0,False
8220,'Widget 8220',16.33,True
8221,'Widget 8221',18.67,False
8222,'Widget 8222',21.0,True
8223,'Widget 8223',23.33,False
8224,'Widget 8224',25.67,True
8225,'Widget 8225',28.0,False
8226,'Widget 8226',30.33,True
8227,'Widget 8227',32.67,False
8228,'Widget 8228',35.0,True
8229,'Widget 8229',37.33,False
8230,'Widget 8230',39.67,True
8231,'Widget 8231',42.0,False
8232,'Widget 8232',44.33,True
8233,'Widget 8233',46.67,False
8234,'Widget 8234',49.0,True
8235,'Widget 8235',51.33,False
8236,'Widget 8236',53.67,True
8237,'Widget 8237',56.0,False
8238,'Widget 8238',58.33,True
8239,'Widget 8239',60.67,False
8240,'Widget 8240',63.0,True
8241,'Widget 8241',65.33,False
8242,'Widget 8242',67.67,True
8243,'Widget 8243',70.0,False
8244,'Widget 8244',72.33,True
8245,'Widget 8245',74.67,False
8246,'Widget 8246',77.0,True
8247,'Widget 8247',79.33,False
8248,'Widget 8248',81.67,True
8249,'Widget 8249',84.0,False
8250,'Widget 8250',86.33,True
8251,'Widget 8251',88.67,False
8252,'Widget 8252',91.0,True
8253,'Widget 8253',93.33,False
8254,'Widget 8254',95.67,True
8255,'Widget 8255',98.0,False
8256,'Widget 8256',100.33,True
8257,'Widget 8257',102.67,False
8258,'Widget 8258',105.0,True
8259,'Widget 8259',107.33,False
8260,'Widget 8260',109.67,True
8261,'Widget 8261',112.0,False
8262,'Widget 8262',114.33,True
8263,'Widget 8263',116.67,False
8264,'Widget 8264',119.0,True
8265,'Widget 8265',121.33,False
8266,'Widget 8266',123.67,True
8267,'Widget 8267',126.0,False
8268,'Widget 8268',128.33,True
8269,'Widget 8269',130.67,False
8270,'Widget 8270',133.0,True
8271,'Widget 8271',135.33,False
8272,'Widget 8272',137.67,True
8273,'Widget 8273',140.0,False
8274,'Widget 8274',142.33,True
8275,'Widget 8275',144.67,False
8276,'Widget 8276',147.0,True
8277,'Widget 8277',149.33,False
8278,'Widget 8278',151.67,True
8279,'Widget 8279',154.0,False
8280,'Widget 8280',156.33,True
8281,'Widget 8281',158.67,False
8282,'Widget 8282',161.0,True
8283,'Widget 8283',163.33,False
8284,'Widget 8284',165.67,True
8285,'Widget 8285',168.0,False
8286,'Widget 8286',3.67,True
8287,'Widget 8287',6.0,False
8288,'Widget 8288',8.33,True
8289,'Widget 8289',10.67,False
8290,'Widget 8290',13.0,True
8291,'Widget 8291',15.33,False
8292,'Widget 8292',17.67,True
8293,'Widget 8293',20.0,False
8294,'Widget 8294',22.33,True
8295,'Widget 8295',24.67,False
8296,'Widget 8296',27.0,True
8297,'Widget 8297',29.33,False
8298,'Widget 8298',31.67,True
8299,'Widget 8299',34.0,False
8300,'Widget 8300',36.33,True
8301,'Widget 8301',38.67,False
8302,'Widget 8302',41.0,True
8303,'Widget 8303',43.33,False
8304,'Widget 8304',45.67,True
8305,'Widget 8305',48.0,False
8306,'Widget 8306',50.33,True
8307,'Widget 8307',52.67,False
8308,'Widget 8308',55.0,True
8309,'Widget 8309',57.33,False
8310,'Widget 8310',59.67,True
8311,'Widget 8311',62.0,False
8312,'Widget 8312',64.33,True
8313,'Widget 8313',66.67,False
8314,'Widget 8314',69.0,True
8315,'Widget 8315',71.33,False
8316,'Widget 8316',73.67,True
8317,'Widget 8317',76.0,False
8318,'Widget 8318',78.33,True
8319,'Widget 8319',80.67,False
8320,'Widget 8320',83.0,True
8321,'Widget 8321',85.33,False
8322,'Widget 8322',87.67,True
8323,'Widget 8323',90.0,False
8324,'Widget 8324',92.33,True
8325,'Widget 8325',94.67,False
8326,'Widget 8326',97.0,True
8327,'Widget 8327',99.33,False
8328,'Widget 8328',101.67,True
8329,'Widget 8329',104.0,False
8330,'Widget 8330',106.33,True
8331,'Widget 8331',108.67,False
8332,'Widget 8332',111.0,True
8333,'Widget 8333',113.33,False
8334,'Widget 8334',115.67,True
8335,'Widget 8335',118.0,False
8336,'Widget 8336',120.33,True
8337,'Widget 8337',122.67,False
8338,'Widget 8338',125.0,True
8339,'Widget 8339',127.33,False
8340,'Widget 8340',129.67,True
8341,'Widget 8341',132.0,False
8342,'Widget 8342',134.33,True
8343,'Widget 8343',136.67,False
8344,'Widget 8344',139.0,True
8345,'Widget 8345',141.33,False
8346,'Widget 8346',143.67,True
8347,'Widget 8347',146.0,False
8348,'Widget 8348',148.33,True
8349,'Widget 8349',150.67,False
8350,'Widget 8350',153.0,True
8351,'Widget 8351',155.33,False
8352,'Widget 8352',157.67,True
8353,'Widget 8353',160.0,False
8354,'Widget 8354',162.33,True
8355,'Widget 8355',164.67,False
8356,'Widget 8356',167.0,True
8357,'Widget 8357',169.33,False
8358,'Widget 8358',5.0,True
8359,'Widget 8359',7.33,False
8360,'Widget 8360',9.67,True
8361,'Widget 8361',12.0,False
8362,'Widget 8362',14.33,True
8363,'Widget 8363',16.67,False
8364,'Widget 8364',19.0,True
8365,'Widget 8365',21.33,False
8366,'Widget 8366',23.67,True
8367,'Widget 8367',26.0,False
8368,'Widget 8368',28.33,True
8369,'Widget 8369',30.67,False
8370,'Widget 8370',33.0,True
8371,'Widget 8371',35.33,False
8372,'Widget 8372',37.67,True
8373,'Widget 8373',40.0,False
8374,'Widget 8374',42.33,True
8375,'Widget 8375',44.67,False
8376,'Widget 8376',47.0,True
8377,'Widget 8377',49.33,False
8378,'Widget 8378',51.67,True
8379,'Widget 8379',54.0,False
8380,'Widget 8380',56.33,True
8381,'Widget 8381',58.67,False
8382,'Widget 8382',61.0,True
8383,'Widget 8383',63.33,False
8384,'Widget 8384',65.67,True
8385,'Widget 8385',68.0,False
8386,'Widget 8386',70.33,True
8387,'Widget 8387',72.67,False
8388,'Widget 8388',75.0,True
8389,'Widget 8389',77.33,False
8390,'Widget 8390',79.67,True
8391,'Widget 8391',82.0,False
8392,'Widget 8392',84.33,True
8393,'Widget 8393',86.67,False
8394,'Widget 8394',89.0,True
8395,'Widget 8395',91.33,False
8396,'Widget 8396',93.67,True
8397,'Widget 8397',96.0,False
8398,'Widget 8398',98.33,True
8399,'Widget 8399',100.67,False
8400,'Widget 8400',103.0,True
8401,'Widget 8401',105.33,False
8402,'Widget 8402',107.67,True
8403,'Widget 8403',110.0,False
8404,'Widget 8404',112.33,True
8405,'Widget 8405',114.67,False
8406,'Widget 8406',117.0,True
8407,'Widget 8407',119.33,False
8408,'Widget 8408',121.67,True
8409,'Widget 8409',124.0,False
8410,'Widget 8410',126.33,True
8411,'Widget 8411',128.67,False
8412,'Widget 8412',131.0,True
8413,'Widget 8413',133.33,False
8414,'Widget 8414',135.67,True
8415,'Widget 8415',138.0,False
8416,'Widget 8416',140.33,True
8417,'Widget 8417',142.67,False
8418,'Widget 8418',145.0,True
8419,'Widget 8419',147.33,False
8420,'Widget 8420',149.67,True
8421,'Widget 8421',152.0,False
8422,'Widget 8422',154.33,True
8423,'Widget 8423',156.67,False
8424,'Widget 8424',159.0,True
8425,'Widget 8425',161.33,False
8426,'Widget 8426',163.67,True
8427,'Widget 8427',166.0,False
8428,'Widget 8428',168.33,True
8429,'Widget 8429',4.0,False
8430,'Widget 8430',6.33,True
8431,'Widget 8431',8.67,False
8432,'Widget 8432',11.0,True
8433,'Widget 8433',13.33,False
8434,'Widget 8434',15.67,True
8435,'Widget 8435',18.0,False
8436,'Widget 8436',20.33,True
8437,'Widget 8437',22.67,False
8438,'Widget 8438',25.0,True
8439,'Widget 8439',27.33,False
8440,'Widget 8440',29.67,True
8441,'Widget 8441',32.0,False
8442,'Widget 8442',34.33,True
8443,'Widget 8443',36.67,False
8444,'Widget 8444',39.0,True
8445,'Widget 8445',41.33,False
8446,'Widget 8446',43.67,True
8447,'Widget 8447',46.0,False
8448,'Widget 8448',48.33,True
8449,'Widget 8449',50.67,False
8450,'Widget 8450',53.0,True
8451,'Widget 8451',55.33,False
8452,'Widget 8452',57.67,True
8453,'Widget 8453',60.0,False
8454,'Widget 8454',62.33,True
8455,'Widget 8455',64.67,False
8456,'Widget 8456',67.0,True
8457,'Widget 8457',69.33,False
8458,'Widget 8458',71.67,True
8459,'Widget 8459',74.0,False
8460,'Widget 8460',76.33,True
8461,'Widget 8461',78.67,False
8462,'Widget 8462',81.0,True
8463,'Widget 8463',83.33,False
8464,'Widget 8464',85.67,True
8465,'Widget 8465',88.0,False
8466,'Widget 8466',90.33,True
8467,'Widget 8467',92.67,False
8468,'Widget 8468',95.0,True
8469,'Widget 8469',97.33,False
8470,'Widget 8470',99.67,True
8471,'Widget 8471',102.0,False
8472,'Widget 8472',104.33,True
8473,'Widget 8473',106.67,False
8474,'Widget 8474',109.0,True
8475,'Widget 8475',111.33,False
8476,'Widget 8476',113.67,True
8477,'Widget 8477',116.0,False
8478,'Widget 8478',118.33,True
8479,'Widget 8479',120.67,False
8480,'Widget 8480',123.0,True
8481,'Widget 8481',125.33,False
8482,'Widget 8482',127.67,True
8483,'Widget 8483',130.0,False
8484,'Widget 8484',132.33,True
8485,'Widget 8485',134.67,False
8486,'Widget 8486',137.0,True
8487,'Widget 8487',139.33,False
8488,'Widget 8488',141.67,True
8489,'Widget 8489',144.0,False
8490,'Widget 8490',146.33,True
8491,'Widget 8491',148.67,False
8492,'Widget 8492',151.0,True
8493,'Widget 8493',153.33,False
8494,'Widget 8494',155.67,True
8495,'Widget 8495',158.0,False
8496,'Widget 8496',160.33,True
8497,'Widget 8497',162.67,False
8498,'Widget 8498',165.0,True
8499,'Widget 8499',167.33,False
8500,'Widget 8500',3.0,True
8501,'Widget 8501',5.33,False
8502,'Widget 8502',7.67,True
8503,'Widget 8503',10.0,False
8504,'Widget 8504',12.33,True
8505,'Widget 8505',14.67,False
8506,'Widget 8506',17.0,True
8507,'Widget 8507',19.33,False
8508,'Widget 8508',21.67,True
8509,'Widget 8509',24.0,False
8510,'Widget 8510',26.33,True
8511,'Widget 8511',28.67,False
8512,'Widget 8512',31.0,True
8513,'Widget 8513',33.33,False
8514,'Widget 8514',35.67,True
8515,'Widget 8515',38.0,False
8516,'Widget 8516',40.33,True
8517,'Widget 8517',42.67,False
8518,'Widget 8518',45.0,True
8519,'Widget 8519',47.33,False
8520,'Widget 8520',49.67,True
8521,'Widget 8521',52.0,False
8522,'Widget 8522',54.33,True
8523,'Widget 8523',56.67,False
8524,'Widget 8524',59.0,True
8525,'Widget 8525',61.33,False
8526,'Widget 8526',63.67,True
8527,'Widget 8527',66.0,False
8528,'Widget 8528',68.33,True
8529,'Widget 8529',70.67,False
8530,'Widget 8530',73.0,True
8531,'Widget 8531',75.33,False
8532,'Widget 8532',77.67,True
8533,'Widget 8533',80.0,False
8534,'Widget 8534',82.33,True
8535,'Widget 8535',84.67,False
8536,'Widget 8536',87.0,True
8537,'Widget 8537',89.33,False
8538,'Widget 8538',91.67,True
8539,'Widget 8539',94.0,False
8540,'Widget 8540',96.33,True
8541,'Widget 8541',98.67,False
8542,'Widget 8542',101.0,True
8543,'Widget 8543',103.33,False
8544,'Widget 8544',105.67,True
8545,'Widget 8545',108.0,False
8546,'Widget 8546',110.33,True
8547,'Widget 8547',112.67,False
8548,'Widget 8548',115.0,True
8549,'Widget 8549',117.33,False
8550,'Widget 8550',119.67,True
8551,'Widget 8551',122.0,False
8552,'Widget 8552',124.33,True
8553,'Widget 8553',126.67,False
8554,'Widget 8554',129.0,True
8555,'Widget 8555',131.33,False
8556,'Widget 8556',133.67,True
8557,'Widget 8557',136.0,False
8558,'Widget 8558',138.33,True
8559,'Widget 8559',140.67,False
8560,'Widget 8560',143.0,True
8561,'Widget 8561',145.33,False
8562,'Widget 8562',147.67,True
8563,'Widget 8563',150.0,False
8564,'Widget 8564',152.33,True
8565,'Widget 8565',154.67,False
8566,'Widget 8566',157.0,True
8567,'Widget 8567',159.33,False
8568,'Widget 8568',161.67,True
8569,'Widget 8569',164.0,False
8570,'Widget 8570',166.33,True
8571,'Widget 8571',168.67,False
8572,'Widget 8572',4.33,True
8573,'Widget 8573',6.67,False
8574,'Widget 8574',9.0,True
8575,'Widget 8575',11.33,False
8576,'Widget 8576',13.67,True
8577,'Widget 8577',16.0,False
8578,'Widget 8578',18.33,True
8579,'Widget 8579',20.67,False
8580,'Widget 8580',23.0,True
8581,'Widget 8581',25.33,False
8582,'Widget 8582',27.67,True
8583,'Widget 8583',30.0,False
8584,'Widget 8584',32.33,True
8585,'Widget 8585',34.67,False
8586,'Widget 8586',37.0,True
8587,'Widget 8587',39.33,False
8588,'Widget 8588',41.67,True
8589,'Widget 8589',44.0,False
8590,'Widget 8590',46.33,True
8591,'Widget 8591',48.67,False
8592,'Widget 8592',51.0,True
8593,'Widget 8593',53.33,False
8594,'Widget 8594',55.67,True
8595,'Widget 8595',58.0,False
8596,'Widget 8596',60.33,True
8597,'Widget 8597',62.67,False
8598,'Widget 8598',65.0,True
8599,'Widget 8599',67.33,False
8600,'Widget 8600',69.67,True
8601,'Widget 8601',72.0,False
8602,'Widget 8602',74.33,True
8603,'Widget 8603',76.67,False
8604,'Widget 8604',79.0,True
8605,'Widget 8605',81.33,False
8606,'Widget 8606',83.67,True
8607,'Widget 8607',86.0,False
8608,'Widget 8608',88.33,True
8609,'Widget 8609',90.67,False
8610,'Widget 8610',93.0,True
8611,'Widget 8611',95.33,False
8612,'Widget 8612',97.67,True
8613,'Widget 8613',100.0,False
8614,'Widget 8614',102.33,True
8615,'Widget 8615',104.67,False
8616,'Widget 8616',107.0,True
8617,'Widget 8617',109.33,False
8618,'Widget 8618',111.67,True
8619,'Widget 8619',114.0,False
8620,'Widget 8620',116.33,True
8621,'Widget 8621',118.67,False
8622,'Widget 8622',121.0,True
8623,'Widget 8623',123.33,False
8624,'Widget 8624',125.67,True
8625,'Widget 8625',128.0,False
8626,'Widget 8626',130.33,True
8627,'Widget 8627',132.67,False
8628,'Widget 8628',135.0,True
8629,'Widget 8629',137.33,False
8630,'Widget 8630',139.67,True
8631,'Widget 8631',142.0,False
8632,'Widget 8632',144.33,True
8633,'Widget 8633',146.67,False
8634,'Widget 8634',149.0,True
8635,'Widget 8635',151.33,False
8636,'Widget 8636',153.67,True
8637,'Widget 8637',156.0,False
8638,'Widget 8638',158.33,True
8639,'Widget 8639',160.67,False
8640,'Widget 8640',163.0,True
8641,'Widget 8641',165.33,False
8642,'Widget 8642',167.67,True
8643,'Widget 8643',3.33,False
8644,'Widget 8644',5.67,True
8645,'Widget 8645',8.0,False
8646,'Widget 8646',10.33,True
8647,'Widget 8647',12.67,False
8648,'Widget 8648',15.0,True
8649,'Widget 8649',17.33,False
8650,'Widget 8650',19.67,True
8651,'Widget 8651',22.0,False
8652,'Widget 8652',24.33,True
8653,'Widget 8653',26.67,False
8654,'Widget 8654',29.0,True
8655,'Widget 8655',31.33,False
8656,'Widget 8656',33.67,True
8657,'Widget 8657',36.0,False
8658,'Widget 8658',38.33,True
8659,'Widget 8659',40.67,False
8660,'Widget 8660',43.0,True
8661,'Widget 8661',45.33,False
8662,'Widget 8662',47.67,True
8663,'Widget 8663',50.0,False
8664,'Widget 8664',52.33,True
8665,'Widget 8665',54.67,False
8666,'Widget 8666',57.0,True
8667,'Widget 8667',59.33,False
8668,'Widget 8668',61.67,True
8669,'Widget 8669',64.0,False
8670,'Widget 8670',66.33,True
8671,'Widget 8671',68.67,False
8672,'Widget 8672',71.0,True
8673,'Widget 8673',73.33,False
8674,'Widget 8674',75.67,True
8675,'Widget 8675',78.0,False
8676,'Widget 8676',80.33,True
8677,'Widget 8677',82.67,False
8678,'Widget 8678',85.0,True
8679,'Widget 8679',87.33,False
8680,'Widget 8680',89.67,True
8681,'Widget 8681',92.0,False
8682,'Widget 8682',94.33,True
8683,'Widget 8683',96.67,False
8684,'Widget 8684',99.0,True
8685,'Widget 8685',101.33,False
8686,'Widget 8686',103.67,True
8687,'Widget 8687',106.0,False
8688,'Widget 8688',108.33,True
8689,'Widget 8689',110.67,False
8690,'Widget 8690',113.0,True
8691,'Widget 8691',115.33,False
8692,'Widget 8692',117.67,True
8693,'Widget 8693',120.0,False
8694,'Widget 8694',122.33,True
8695,'Widget 8695',124.67,False
8696,'Widget 8696',127.0,True
8697,'Widget 8697',129.33,False
8698,'Widget 8698',131.67,True
8699,'Widget 8699',134.0,False
8700,'Widget 8700',136.33,True
8701,'Widget 8701',138.67,False
8702,'Widget 8702',141.0,True
8703,'Widget 8703',143.33,False
8704,'Widget 8704',145.67,True
8705,'Widget 8705',148.0,False
8706,'Widget 8706',150.33,True
8707,'Widget 8707',152.67,False
8708,'Widget 8708',155.0,True
8709,'Widget 8709',157.33,False
8710,'Widget 8710',159.67,True
8711,'Widget 8711',162.0,False
8712,'Widget 8712',164.33,True
8713,'Widget 8713',166.67,False
8714,'Widget 8714',169.0,True
8715,'Widget 8715',4.67,False
8716,'Widget 8716',7.0,True
8717,'Widget 8717',9.33,False
8718,'Widget 8718',11.67,True
8719,'Widget 8719',14.0,False
8720,'Widget 8720',16.33,True
8721,'Widget 8721',18.67,False
8722,'Widget 8722',21.0,True
8723,'Widget 8723',23.33,False
8724,'Widget 8724',25.67,True
8725,'Widget 8725',28.0,False
8726,'Widget 8726',30.33,True
8727,'Widget 8727',32.67,False
8728,'Widget 8728',35.0,True
8729,'Widget 8729',37.33,False
8730,'Widget 8730',39.67,True
8731,'Widget 8731',42.0,False
8732,'Widget 8732',44.33,True
8733,'Widget 8733',46.67,False
8734,'Widget 8734',49.0,True
8735,'Widget 8735',51.33,False
8736,'Widget 8736',53.67,True
8737,'Widget 8737',56.0,False
8738,'Widget 8738',58.33,True
8739,'Widget 8739',60.67,False
8740,'Widget 8740',63.0,True
8741,'Widget 8741',65.33,False
8742,'Widget 8742',67.67,True
8743,'Widget 8743',70.0,False
8744,'Widget 8744',72.33,True
8745,'Widget 8745',74.67,False
8746,'Widget 8746',77.0,True
8747,'Widget 8747',79.33,False
8748,'Widget 8748',81.67,True
8749,'Widget 8749',84.0,False
8750,'Widget 8750',86.33,True
8751,'Widget 8751',88.67,False
8752,'Widget 8752',91.0,True
8753,'Widget 8753',93.33,False
8754,'Widget 8754',95.67,True
8755,'Widget 8755',98.0,False
8756,'Widget 8756',100.33,True
8757,'Widget 8757',102.67,False
8758,'Widget 8758',105.0,True
8759,'Widget 8759',107.33,False
8760,'Widget 8760',109.67,True
8761,'Widget 8761',112.0,False
8762,'Widget 8762',114.33,True
8763,'Widget 8763',116.67,False
8764,'Widget 8764',119.0,True
8765,'Widget 8765',121.33,False
8766,'Widget 8766',123.67,True
8767,'Widget 8767',126.0,False
8768,'Widget 8768',128.33,True
8769,'Widget 8769',130.67,False
8770,'Widget 8770',133.0,True
8771,'Widget 8771',135.33,False
8772,'Widget 8772',137.67,True
8773,'Widget 8773',140.0,False
8774,'Widget 8774',142.33,True
8775,'Widget 8775',144.67,False
8776,'Widget 8776',147.0,True
8777,'Widget 8777',149.33,False
8778,'Widget 8778',151.67,True
8779,'Widget 8779',154.0,False
8780,'Widget 8780',156.33,True
8781,'Widget 8781',158.67,False
8782,'Widget 8782',161.0,True
8783,'Widget 8783',163.33,False
8784,'Widget 8784',165.67,True
8785,'Widget 8785',168.0,False
8786,'Widget 8786',3.67,True
8787,'Widget 8787',6.0,False
8788,'Widget 8788',8.33,True
8789,'Widget 8789',10.67,False
8790,'Widget 8790',13.0,True
8791,'Widget 8791',15.33,False
8792,'Widget 8792',17.67,True
8793,'Widget 8793',20.0,False
8794,'Widget 8794',22.33,True
8795,'Widget 8795',24.67,False
8796,'Widget 8796',27.0,True
8797,'Widget 8797',29.33,False
8798,'Widget 8798',31.67,True
8799,'Widget 8799',34.0,False
8800,'Widget 8800',36.33,True
8801,'Widget 8801',38.67,False
8802,'Widget 8802',41.0,True
8803,'Widget 8803',43.33,False
8804,'Widget 8804',45.67,True
8805,'Widget 8805',48.0,False
8806,'Widget 8806',50.33,True
8807,'Widget 8807',52.67,False
8808,'Widget 8808',55.0,True
8809,'Widget 8809',57.33,False
8810,'Widget 8810',59.67,True
8811,'Widget 8811',62.0,False
8812,'Widget 8812',64.33,True
8813,'Widget 8813',66.67,False
8814,'Widget 8814',69.0,True
8815,'Widget 8815',71.33,False
8816,'Widget 8816',73.67,True
8817,'Widget 8817',76.0,False
8818,'Widget 8818',78.33,True
8819,'Widget 8819',80.67,False
8820,'Widget 8820',83.0,True
8821,'Widget 8821',85.33,False
8822,'Widget 8822',87.67,True
8823,'Widget 8823',90.0,False
8824,'Widget 8824',92.33,True
8825,'Widget 8825',94.67,False
8826,'Widget 8826',97.0,True
8827,'Widget 8827',99.33,False
8828,'Widget 8828',101.67,True
8829,'Widget 8829',104.0,False
8830,'Widget 8830',106.33,True
8831,'Widget 8831',108.67,False
8832,'Widget 8832',111.0,True
8833,'Widget 8833',113.33,False
8834,'Widget 8834',115.67,True
8835,'Widget 8835',118.0,False
8836,'Widget 8836',120.33,True
8837,'Widget 8837',122.67,False
8838,'Widget 8838',125.0,True
8839,'Widget 8839',127.33,False
8840,'Widget 8840',129.67,True
8841,'Widget 8841',132.0,False
8842,'Widget 8842',134.33,True
8843,'Widget 8843',136.67,False
8844,'Widget 8844',139.0,True
8845,'Widget 8845',141.33,False
8846,'Widget 8846',143.67,True
8847,'Widget 8847',146.0,False
8848,'Widget 8848',148.33,True
8849,'Widget 8849',150.67,False
8850,'Widget 8850',153.0,True
8851,'Widget 8851',155.33,False
8852,'Widget 8852',157.67,True
8853,'Widget 8853',160.0,False
8854,'Widget 8854',162.33,True
8855,'Widget 8855',164.67,False
8856,'Widget 8856',167.0,True
8857,'Widget 8857',169.33,False
8858,'Widget 8858',5.0,True
8859,'Widget 8859',7.33,False
8860,'Widget 8860',9.67,True
8861,'Widget 8861',12.0,False
8862,'Widget 8862',14.33,True
8863,'Widget 8863',16.67,False
8864,'Widget 8864',19.0,True
8865,'Widget 8865',21.33,False
8866,'Widget 8866',23.67,True
8867,'Widget 8867',26.0,False
8868,'Widget 8868',28.33,True
8869,'Widget 8869',30.67,False
8870,'Widget 8870',33.0,True
8871,'Widget 8871',35.33,False
8872,'Widget 8872',37.67,True
8873,'Widget 8873',40.0,False
8874,'Widget 8874',42.33,True
8875,'Widget 8875',44.67,False
8876,'Widget 8876',47.0,True
8877,'Widget 8877',49.33,False
8878,'Widget 8878',51.67,True
8879,'Widget 8879',54.0,False
8880,'Widget 8880',56.33,True
8881,'Widget 8881',58.67,False
8882,'Widget 8882',61.0,True
8883,'Widget 8883',63.33,False
8884,'Widget 8884',65.67,True
8885,'Widget 8885',68.0,False
8886,'Widget 8886',70.33,True
8887,'Widget 8887',72.67,False
8888,'Widget 8888',75.0,True
8889,'Widget 8889',77.33,False
8890,'Widget 8890',79.67,True
8891,'Widget 8891',82.0,False
8892,'Widget 8892',84.33,True
8893,'Widget 8893',86.67,False
8894,'Widget 8894',89.0,True
8895,'Widget 8895',91.33,False
8896,'Widget 8896',93.67,True
8897,'Widget 8897',96.0,False
8898,'Widget 8898',98.33,True
8899,'Widget 8899',100.67,False
8900,'Widget 8900',103.0,True
8901,'Widget 8901',105.33,False
8902,'Widget 8902',107.67,True
8903,'Widget 8903',110.0,False
8904,'Widget 8904',112.33,True
8905,'Widget 8905',114.67,False
8906,'Widget 8906',117.0,True
8907,'Widget 8907',119.33,False
8908,'Widget 8908',121.67,True
8909,'Widget 8909',124.0,False
8910,'Widget 8910',126.33,True
8911,'Widget 8911',128.67,False
8912,'Widget 8912',131.0,True
8913,'Widget 8913',133.33,False
8914,'Widget 8914',135.67,True
8915,'Widget 8915',138.0,False
8916,'Widget 8916',140.33,True
8917,'Widget 8917',142.67,False
8918,'Widget 8918',145.0,True
8919,'Widget 8919',147.33,False
8920,'Widget 8920',149.67,True
8921,'Widget 8921',152.0,False
8922,'Widget 8922',154.33,True
8923,'Widget 8923',156.67,False
8924,'Widget 8924',159.0,True
8925,'Widget 8925',161.33,False
8926,'Widget 8926',163.67,True
8927,'Widget 8927',166.0,False
8928,'Widget 8928',168.33,True
8929,'Widget 8929',4.0,False
8930,'Widget 8930',6.33,True
8931,'Widget 8931',8.67,False
8932,'Widget 8932',11.0,True
8933,'Widget 8933',13.33,False
8934,'Widget 8934',15.67,True
8935,'Widget 8935',18.0,False
8936,'Widget 8936',20.33,True
8937,'Widget 8937',22.67,False
8938,'Widget 8938',25.0,True
8939,'Widget 8939',27.33,False
8940,'Widget 8940',29.67,True
8941,'Widget 8941',32.0,False
8942,'Widget 8942',34.33,True
8943,'Widget 8943',36.67,False
8944,'Widget 8944',39.0,True
8945,'Widget 8945',41.33,False
8946,'Widget 8946',43.67,True
8947,'Widget 8947',46.0,False
8948,'Widget 8948',48.33,True
8949,'Widget 8949',50.67,False
8950,'Widget 8950',53.0,True
8951,'Widget 8951',55.33,False
8952,'Widget 8952',57.67,True
8953,'Widget 8953',60.0,False
8954,'Widget 8954',62.33,True
8955,'Widget 8955',64.67,False
8956,'Widget 8956',67.0,True
8957,'Widget 8957',69.33,False
8958,'Widget 8958',71.67,True
8959,'Widget 8959',74.0,False
8960,'Widget 8960',76.33,True
8961,'Widget 8961',78.67,False
8962,'Widget 8962',81.0,True
8963,'Widget 8963',83.33,False
8964,'Widget 8964',85.67,True
8965,'Widget 8965',88.0,False
8966,'Widget 8966',90.33,True
8967,'Widget 8967',92.67,False
8968,'Widget 8968',95.0,True
8969,'Widget 8969',97.33,False
8970,'Widget 8970',99.67,True
8971,'Widget 8971',102.0,False
8972,'Widget 8972',104.33,True
8973,'Widget 8973',106.67,False
8974,'Widget 8974',109.0,True
8975,'Widget 8975',111.33,False
8976,'Widget 8976',113.67,True
8977,'Widget 8977',116.0,False
8978,'Widget 8978',118.33,True
8979,'Widget 8979',120.67,False
8980,'Widget 8980',123.0,True
8981,'Widget 8981',125.33,False
8982,'Widget 8982',127.67,True
8983,'Widget 8983',130.0,False
8984,'Widget 8984',132.33,True
8985,'Widget 8985',134.67,False
8986,'Widget 8986',137.0,True
8987,'Widget 8987',139.33,False
8988,'Widget 8988',141.67,True
8989,'Widget 8989',144.0,False
8990,'Widget 8990',146.33,True
8991,'Widget 8991',148.67,False
8992,'Widget 8992',151.0,True
8993,'Widget 8993',153.33,False
8994,'Widget 8994',155.67,True
8995,'Widget 8995',158.0,False
8996,'Widget 8996',160.33,True
8997,'Widget 8997',162.67,False
8998,'Widget 8998',165.0,True
8999,'Widget 8999',167.33,False
9000,'Widget 9000',3.0,True
9001,'Widget 9001',5.33,False
9002,'Widget 9002',7.67,True
9003,'Widget 9003',10.0,False
9004,'Widget 9004',12.33,True
9005,'Widget 9005',14.67,False
9006,'Widget 9006',17.0,True
9007,'Widget 9007',19.33,False
9008,'Widget 9008',21.67,True
9009,'Widget 9009',24.0,False
9010,'Widget 9010',26.33,True
9011,'Widget 9011',28.67,False
9012,'Widget 9012',31.0,True
9013,'Widget 9013',33.33,False
9014,'Widget 9014',35.67,True
9015,'Widget 9015',38.0,False
9016,'Widget 9016',40.33,True
9017,'Widget 9017',42.67,False
9018,'Widget 9018',45.0,True
9019,'Widget 9019',47.33,False
9020,'Widget 9020',49.67,True
9021,'Widget 9021',52.0,False
9022,'Widget 9022',54.33,True
9023,'Widget 9023',56.67,False
9024,'Widget 9024',59.0,True
9025,'Widget 9025',61.33,False
9026,'Widget 9026',63.67,True
9027,'Widget 9027',66.0,False
9028,'Widget 9028',68.33,True
9029,'Widget 9029',70.67,False
9030,'Widget 9030',73.0,True
9031,'Widget 9031',75.33,False
9032,'Widget 9032',77.67,True
9033,'Widget 9033',80.0,False
9034,'Widget 9034',82.33,True
9035,'Widget 9035',84.67,False
9036,'Widget 9036',87.0,True
9037,'Widget 9037',89.33,False
9038,'Widget 9038',91.67,True
9039,'Widget 9039',94.0,False
9040,'Widget 9040',96.33,True
9041,'Widget 9041',98.67,False
9042,'Widget 9042',101.0,True
9043,'Widget 9043',103.33,False
9044,'Widget 9044',105.67,True
9045,'Widget 9045',108.0,False
9046,'Widget 9046',110.33,True
9047,'Widget 9047',112.67,False
9048,'Widget 9048',115.0,True
9049,'Widget 9049',117.33,False
9050,'Widget 9050',119.67,True
9051,'Widget 9051',122.0,False
9052,'Widget 9052',124.33,True
9053,'Widget 9053',126.67,False
9054,'Widget 9054',129.0,True
9055,'Widget 9055',131.33,False
9056,'Widget 9056',133.67,True
9057,'Widget 9057',136.0,False
9058,'Widget 9058',138.33,True
9059,'Widget 9059',140.67,False
9060,'Widget 9060',143.0,True
9061,'Widget 9061',145.33,False
9062,'Widget 9062',147.67,True
9063,'Widget 9063',150.0,False
9064,'Widget 9064',152.33,True
9065,'Widget 9065',154.67,False
9066,'Widget 9066',157.0,True
9067,'Widget 9067',159.33,False
9068,'Widget 9068',161.67,True
9069,'Widget 9069',164.0,False
9070,'Widget 9070',166.33,True
9071,'Widget 9071',168.67,False
9072,'Widget 9072',4.33,True
9073,'Widget 9073',6.67,False
9074,'Widget 9074',9.0,True
9075,'Widget 9075',11.33,False
9076,'Widget 9076',13.67,True
9077,'Widget 9077',16.0,False
9078,'Widget 9078',18.33,True
9079,'Widget 9079',20.67,False
9080,'Widget 9080',23.0,True
9081,'Widget 9081',25.33,False
9082,'Widget 9082',27.67,True
9083,'Widget 9083',30.0,False
9084,'Widget 9084',32.33,True
9085,'Widget 9085',34.67,False
9086,'Widget 9086',37.0,True
9087,'Widget 9087',39.33,False
9088,'Widget 9088',41.67,True
9089,'Widget 9089',44.0,False
9090,'Widget 9090',46.33,True
9091,'Widget 9091',48.67,False
9092,'Widget 9092',51.0,True
9093,'Widget 9093',53.33,False
9094,'Widget 9094',55.67,True
9095,'Widget 9095',58.0,False
9096,'Widget 9096',60.33,True
9097,'Widget 9097',62.67,False
9098,'Widget 9098',65.0,True
9099,'Widget 9099',67.33,False
9100,'Widget 9100',69.67,True
9101,'Widget 9101',72.0,False
9102,'Widget 9102',74.33,True
9103,'Widget 9103',76.67,False
9104,'Widget 9104',79.0,True
9105,'Widget 9105',81.33,False
9106,'Widget 9106',83.67,True
9107,'Widget 9107',86.0,False
9108,'Widget 9108',88.33,True
9109,'Widget 9109',90.67,False
9110,'Widget 9110',93.0,True
9111,'Widget 9111',95.33,False
9112,'Widget 9112',97.67,True
9113,'Widget 9113',100.0,False
9114,'Widget 9114',102.33,True
9115,'Widget 9115',104.67,False
9116,'Widget 9116',107.0,True
9117,'Widget 9117',109.33,False
9118,'Widget 9118',111.67,True
9119,'Widget 9119',114.0,False
9120,'Widget 9120',116.33,True
9121,'Widget 9121',118.67,False
9122,'Widget 9122',121.0,True
9123,'Widget 9123',123.33,False
9124,'Widget 9124',125.67,True
9125,'Widget 9125',128.0,False
9126,'Widget 9126',130.33,True
9127,'Widget 9127',132.67,False
9128,'Widget 9128',135.0,True
9129,'Widget 9129',137.33,False
9130,'Widget 9130',139.67,True
9131,'Widget 9131',142.0,False
9132,'Widget 9132',144.33,True
9133,'Widget 9133',146.67,False
9134,'Widget 9134',149.0,True
9135,'Widget 9135',151.33,False
9136,'Widget 9136',153.67,True
9137,'Widget 9137',156.0,False
9138,'Widget 9138',158.33,True
9139,'Widget 9139',160.67,False
9140,'Widget 9140',163.0,True
9141,'Widget 9141',165.33,False
9142,'Widget 9142',167.67,True
9143,'Widget 9143',3.33,False
9144,'Widget 9144',5.67,True
9145,'Widget 9145',8.0,False
9146,'Widget 9146',10.33,True
9147,'Widget 9147',12.67,False
9148,'Widget 9148',15.0,True
9149,'Widget 9149',17.33,False
9150,'Widget 9150',19.67,True
9151,'Widget 9151',22.0,False
9152,'Widget 9152',24.33,True
9153,'Widget 9153',26.67,False
9154,'Widget 9154',29.0,True
9155,'Widget 9155',31.33,False
9156,'Widget 9156',33.67,True
9157,'Widget 9157',36.0,False
9158,'Widget 9158',38.33,True
9159,'Widget 9159',40.67,False
9160,'Widget 9160',43.0,True
9161,'Widget 9161',45.33,False
9162,'Widget 9162',47.67,True
9163,'Widget 9163',50.0,False
9164,'Widget 9164',52.33,True
9165,'Widget 9165',54.67,False
9166,'Widget 9166',57.0,True
9167,'Widget 9167',59.33,False
9168,'Widget 9168',61.67,True
9169,'Widget 9169',64.0,False
9170,'Widget 9170',66.33,True
9171,'Widget 9171',68.67,False
9172,'Widget 9172',71.0,True
9173,'Widget 9173',73.33,False
9174,'Widget 9174',75.67,True
9175,'Widget 9175',78.0,False
9176,'Widget 9176',80.33,True
9177,'Widget 9177',82.67,False
9178,'Widget 9178',85.0,True
9179,'Widget 9179',87.33,False
9180,'Widget 9180',89.67,True
9181,'Widget 9181',92.0,False
9182,'Widget 9182',94.33,True
9183,'Widget 9183',96.67,False
9184,'Widget 9184',99.0,True
9185,'Widget 9185',101.33,False
9186,'Widget 9186',103.67,True
9187,'Widget 9187',106.0,False
9188,'Widget 9188',108.33,True
9189,'Widget 9189',110.67,False
9190,'Widget 9190',113.0,True
9191,'Widget 9191',115.33,False
9192,'Widget 9192',117.67,True
9193,'Widget 9193',120.0,False
9194,'Widget 9194',122.33,True
9195,'Widget 9195',124.67,False
9196,'Widget 9196',127.0,True
9197,'Widget 9197',129.33,False
9198,'Widget 9198',131.67,True
9199,'Widget 9199',134.0,False
9200,'Widget 9200',136.33,True
9201,'Widget 9201',138.67,False
9202,'Widget 9202',141.0,True
9203,'Widget 9203',143.33,False
9204,'Widget 9204',145.67,True
9205,'Widget 9205',148.0,False
9206,'Widget 9206',150.33,True
9207,'Widget 9207',152.67,False
9208,'Widget 9208',155.0,True
9209,'Widget 9209',157.33,False
9210,'Widget 9210',159.67,True
9211,'Widget 9211',162.0,False
9212,'Widget 9212',164.33,True
9213,'Widget 9213',166.67,False
9214,'Widget 9214',169.0,True
9215,'Widget 9215',4.67,False
9216,'Widget 9216',7.0,True
9217,'Widget 9217',9.33,False
9218,'Widget 9218',11.67,True
9219,'Widget 9219',14.0,False
9220,'Widget 9220',16.33,True
9221,'Widget 9221',18.67,False
9222,'Widget 9222',21.0,True
9223,'Widget 9223',23.33,False
9224,'Widget 9224',25.67,True
9225,'Widget 9225',28.0,False
9226,'Widget 9226',30.33,True
9227,'Widget 9227',32.67,False
9228,'Widget 9228',35.0,True
9229,'Widget 9229',37.33,False
9230,'Widget 9230',39.67,True
9231,'Widget 9231',42.0,False
9232,'Widget 9232',44.33,True
9233,'Widget 9233',46.67,False
9234,'Widget 9234',49.0,True
9235,'Widget 9235',51.33,False
9236,'Widget 9236',53.67,True
9237,'Widget 9237',56.0,False
9238,'Widget 9238',58.33,True
9239,'Widget 9239',60.67,False
9240,'Widget 9240',63.0,True
9241,'Widget 9241',65.33,False
9242,'Widget 9242',67.67,True
9243,'Widget 9243',70.0,False
9244,'Widget 9244',72.33,True
9245,'Widget 9245',74.67,False
9246,'Widget 9246',77.0,True
9247,'Widget 9247',79.33,False
9248,'Widget 9248',81.67,True
9249,'Widget 9249',84.0,False
9250,'Widget 9250',86.33,True
9251,'Widget 9251',88.67,False
9252,'Widget 9252',91.0,True
9253,'Widget 9253',93.33,False
9254,'Widget 9254',95.67,True
9255,'Widget 9255',98.0,False
9256,'Widget 9256',100.33,True
9257,'Widget 9257',102.67,False
9258,'Widget 9258',105.0,True
9259,'Widget 9259',107.33,False
9260,'Widget 9260',109.67,True
9261,'Widget 9261',112.0,False
9262,'Widget 9262',114.33,True
9263,'Widget 9263',116.67,False
9264,'Widget 9264',119.0,True
9265,'Widget 9265',121.33,False
9266,'Widget 9266',123.67,True
9267,'Widget 9267',126.0,False
9268,'Widget 9268',128.33,True
9269,'Widget 9269',130.67,False
9270,'Widget 9270',133.0,True
9271,'Widget 9271',135.33,False
9272,'Widget 9272',137.67,True
9273,'Widget 9273',140.0,False
9274,'Widget 9274',142.33,True
9275,'Widget 9275',144.67,False
9276,'Widget 9276',147.0,True
9277,'Widget 9277',149.33,False
9278,'Widget 9278',151.67,True
9279,'Widget 9279',154.0,False
9280,'Widget 9280',156.33,True
9281,'Widget 9281',158.67,False
9282,'Widget 9282',161.0,True
9283,'Widget 9283',163.33,False
9284,'Widget 9284',165.67,True
9285,'Widget 9285',168.0,False
9286,'Widget 9286',3.67,True
9287,'Widget 9287',6.0,False
9288,'Widget 9288',8.33,True
9289,'Widget 9289',10.67,False
9290,'Widget 9290',13.0,True
9291,'Widget 9291',15.33,False
9292,'Widget 9292',17.67,True
9293,'Widget 9293',20.0,False
9294,'Widget 9294',22.33,True
9295,'Widget 9295',24.67,False
9296,'Widget 9296',27.0,True
9297,'Widget 9297',29.33,False
9298,'Widget 9298',31.67,True
9299,'Widget 9299',34.0,False
9300,'Widget 9300',36.33,True
9301,'Widget 9301',38.67,False
9302,'Widget 9302',41.0,True
9303,'Widget 9303',43.33,False
9304,'Widget 9304',45.67,True
9305,'Widget 9305',48.0,False
9306,'Widget 9306',50.33,True
9307,'Widget 9307',52.67,False
9308,'Widget 9308',55.0,True
9309,'Widget 9309',57.33,False
9310,'Widget 9310',59.67,True
9311,'Widget 9311',62.0,False
9312,'Widget 9312',64.33,True
9313,'Widget 9313',66.67,False
9314,'Widget 9314',69.0,True
9315,'Widget 9315',71.33,False
9316,'Widget 9316',73.67,True
9317,'Widget 9317',76.0,False
9318,'Widget 9318',78.33,True
9319,'Widget 9319',80.67,False
9320,'Widget 9320',83.0,True
9321,'Widget 9321',85.33,False
9322,'Widget 9322',87.67,True
9323,'Widget 9323',90.0,False
9324,'Widget 9324',92.33,True
9325,'Widget 9325',94.67,False
9326,'Widget 9326',97.0,True
9327,'Widget 9327',99.33,False
9328,'Widget 9328',101.67,True
9329,'Widget 9329',104.0,False
9330,'Widget 9330',106.33,True
9331,'Widget 9331',108.67,False
9332,'Widget 9332',111.0,True
9333,'Widget 9333',113.33,False
9334,'Widget 9334',115.67,True
9335,'Widget 9335',118.0,False
9336,'Widget 9336',120.33,True
9337,'Widget 9337',122.67,False
9338,'Widget 9338',125.0,True
9339,'Widget 9339',127.33,False
9340,'Widget 9340',129.67,True
9341,'Widget 9341',132.0,False
9342,'Widget 9342',134.33,True
9343,'Widget 9343',136.67,False
9344,'Widget 9344',139.0,True
9345,'Widget 9345',141.33,False
9346,'Widget 9346',143.67,True
9347,'Widget 9347',146.0,False
9348,'Widget 9348',148.33,True
9349,'Widget 9349',150.67,False
9350,'Widget 9350',153.0,True
9351,'Widget 9351',155.33,False
9352,'Widget 9352',157.67,True
9353,'Widget 9353',160.0,False
9354,'Widget 9354',162.33,True
9355,'Widget 9355',164.67,False
9356,'Widget 9356',167.0,True
9357,'Widget 9357',169.33,False
9358,'Widget 9358',5.0,True
9359,'Widget 9359',7.33,False
9360,'Widget 9360',9.67,True
9361,'Widget 9361',12.0,False
9362,'Widget 9362',14.33,True
9363,'Widget 9363',16.67,False
9364,'Widget 9364',19.0,True
9365,'Widget 9365',21.33,False
9366,'Widget 9366',23.67,True
9367,'Widget 9367',26.0,False
9368,'Widget 9368',28.33,True
9369,'Widget 9369',30.67,False
9370,'Widget 9370',33.0,True
9371,'Widget 9371',35.33,False
9372,'Widget 9372',37.67,True
9373,'Widget 9373',40.0,False
9374,'Widget 9374',42.33,True
9375,'Widget 9375',44.67,False
9376,'Widget 9376',47.0,True
9377,'Widget 9377',49.33,False
9378,'Widget 9378',51.67,True
9379,'Widget 9379',54.0,False
9380,'Widget 9380',56.33,True
9381,'Widget 9381',58.67,False
9382,'Widget 9382',61.0,True
9383,'Widget 9383',63.33,False
9384,'Widget 9384',65.67,True
9385,'Widget 9385',68.0,False
9386,'Widget 9386',70.33,True
9387,'Widget 9387',72.67,False
9388,'Widget 9388',75.0,True
9389,'Widget 9389',77.33,False
9390,'Widget 9390',79.67,True
9391,'Widget 9391',82.0,False
9392,'Widget 9392',84.33,True
9393,'Widget 9393',86.67,False
9394,'Widget 9394',89.0,True
9395,'Widget 9395',91.33,False
9396,'Widget 9396',93.67,True
9397,'Widget 9397',96.0,False
9398,'Widget 9398',98.33,True
9399,'Widget 9399',100.67,False
9400,'Widget 9400',103.0,True
9401,'Widget 9401',105.33,False
9402,'Widget 9402',107.67,True
9403,'Widget 9403',110.0,False
9404,'Widget 9404',112.33,True
9405,'Widget 9405',114.67,False
9406,'Widget 9406',117.0,True
9407,'Widget 9407',119.33,False
9408,'Widget 9408',121.67,True
9409,'Widget 9409',124.0,False
9410,'Widget 9410',126.33,True
9411,'Widget 9411',128.67,False
9412,'Widget 9412',131.0,True
9413,'Widget 9413',133.33,False
9414,'Widget 9414',135.67,True
9415,'Widget 9415',138.0,False
9416,'Widget 9416',140.33,True
9417,'Widget 9417',142.67,False
9418,'Widget 9418',145.0,True
9419,'Widget 9419',147.33,False
9420,'Widget 9420',149.67,True
9421,'Widget 9421',152.0,False
9422,'Widget 9422',154.33,True
9423,'Widget 9423',156.67,False
9424,'Widget 9424',159.0,True
9425,'Widget 9425',161.33,False
9426,'Widget 9426',163.67,True
9427,'Widget 9427',166.0,False
9428,'Widget 9428',168.33,True
9429,'Widget 9429',4.0,False
9430,'Widget 9430',6.33,True
9431,'Widget 9431',8.67,False
9432,'Widget 9432',11.0,True
9433,'Widget 9433',13.33,False
9434,'Widget 9434',15.67,True
9435,'Widget 9435',18.0,False
9436,'Widget 9436',20.33,True
9437,'Widget 9437',22.67,False
9438,'Widget 9438',25.0,True
9439,'Widget 9439',27.33,False
9440,'Widget 9440',29.67,True
9441,'Widget 9441',32.0,False
9442,'Widget 9442',34.33,True
9443,'Widget 9443',36.67,False
9444,'Widget 9444',39.0,True
9445,'Widget 9445',41.33,False
9446,'Widget 9446',43.67,True
9447,'Widget 9447',46.0,False
9448,'Widget 9448',48.33,True
9449,'Widget 9449',50.67,False
9450,'Widget 9450',53.0,True
9451,'Widget 9451',55.33,False
9452,'Widget 9452',57.67,True
9453,'Widget 9453',60.0,False
9454,'Widget 9454',62.33,True
9455,'Widget 9455',64.67,False
9456,'Widget 9456',67.0,True
9457,'Widget 9457',69.33,False
9458,'Widget 9458',71.67,True
9459,'Widget 9459',74.0,False
9460,'Widget 9460',76.33,True
9461,'Widget 9461',78.67,False
9462,'Widget 9462',81.0,True
9463,'Widget 9463',83.33,False
9464,'Widget 9464',85.67,True
9465,'Widget 9465',88.0,False
9466,'Widget 9466',90.33,True
9467,'Widget 9467',92.67,False
9468,'Widget 9468',95.0,True
9469,'Widget 9469',97.33,False
9470,'Widget 9470',99.67,True
9471,'Widget 9471',102.0,False
9472,'Widget 9472',104.33,True
9473,'Widget 9473',106.67,False
9474,'Widget 9474',109.0,True
9475,'Widget 9475',111.33,False
9476,'Widget 9476',113.67,True
9477,'Widget 9477',116.0,False
9478,'Widget 9478',118.33,True
9479,'Widget 9479',120.67,False
9480,'Widget 9480',123.0,True
9481,'Widget 9481',125.33,False
9482,'Widget 9482',127.67,True
9483,'Widget 9483',130.0,False
9484,'Widget 9484',132.33,True
9485,'Widget 9485',134.67,False
9486,'Widget 9486',137.0,True
9487,'Widget 9487',139.33,False
9488,'Widget 9488',141.67,True
9489,'Widget 9489',144.0,False
9490,'Widget 9490',146.33,True
9491,'Widget 9491',148.67,False
9492,'Widget 9492',151.0,True
9493,'Widget 9493',153.33,False
9494,'Widget 9494',155.67,True
9495,'Widget 9495',158.0,False
9496,'Widget 9496',160.33,True
9497,'Widget 9497',162.67,False
9498,'Widget 9498',165.0,True
9499,'Widget 9499',167.33,False
9500,'Widget 9500',3.0,True
9501,'Widget 9501',5.33,False
9502,'Widget 9502',7.67,True
9503,'Widget 9503',10.0,False
9504,'Widget 9504',12.33,True
9505,'Widget 9505',14.67,False
9506,'Widget 9506',17.0,True
9507,'Widget 9507',19.33,False
9508,'Widget 9508',21.67,True
9509,'Widget 9509',24.0,False
9510,'Widget 9510',26.33,True
9511,'Widget 9511',28.67,False
9512,'Widget 9512',31.0,True
9513,'Widget 9513',33.33,False
9514,'Widget 9514',35.67,True
9515,'Widget 9515',38.0,False
9516,'Widget 9516',40.33,True
9517,'Widget 9517',42.67,False
9518,'Widget 9518',45.0,True
9519,'Widget 9519',47.33,False
9520,'Widget 9520',49.67,True
9521,'Widget 9521',52.0,False
9522,'Widget 9522',54.33,True
9523,'Widget 9523',56.67,False
9524,'Widget 9524',59.0,True
9525,'Widget 9525',61.33,False
9526,'Widget 9526',63.67,True
9527,'Widget 9527',66.0,False
9528,'Widget 9528',68.33,True
9529,'Widget 9529',70.67,False
9530,'Widget 9530',73.0,True
9531,'Widget 9531',75.33,False
9532,'Widget 9532',77.67,True
9533,'Widget 9533',80.0,False
9534,'Widget 9534',82.33,True
9535,'Widget 9535',84.67,False
9536,'Widget 9536',87.0,True
9537,'Widget 9537',89.33,False
9538,'Widget 9538',91.67,True
9539,'Widget 9539',94.0,False
9540,'Widget 9540',96.33,True
9541,'Widget 9541',98.67,False
9542,'Widget 9542',101.0,True
9543,'Widget 9543',103.33,False
9544,'Widget 9544',105.67,True
9545,'Widget 9545',108.0,False
9546,'Widget 9546',110.33,True
9547,'Widget 9547',112.67,False
9548,'Widget 9548',115.0,True
9549,'Widget 9549',117.33,False
9550,'Widget 9550',119.67,True
9551,'Widget 9551',122.0,False
9552,'Widget 9552',124.33,True
9553,'Widget 9553',126.67,False
9554,'Widget 9554',129.0,True
9555,'Widget 9555',131.33,False
9556,'Widget 9556',133.67,True
9557,'Widget 9557',136.0,False
9558,'Widget 9558',138.33,True
9559,'Widget 9559',140.67,False
9560,'Widget 9560',143.0,True
9561,'Widget 9561',145.33,False
9562,'Widget 9562',147.67,True
9563,'Widget 9563',150.0,False
9564,'Widget 9564',152.33,True
9565,'Widget 9565',154.67,False
9566,'Widget 9566',157.0,True
9567,'Widget 9567',159.33,False
9568,'Widget 9568',161.67,True
9569,'Widget 9569',164.0,False
9570,'Widget 9570',166.33,True
9571,'Widget 9571',168.67,False
9572,'Widget 9572',4.33,True
9573,'Widget 9573',6.67,False
9574,'Widget 9574',9.0,True
9575,'Widget 9575',11.33,False
9576,'Widget 9576',13.67,True
9577,'Widget 9577',16.0,False
9578,'Widget 9578',18.33,True
9579,'Widget 9579',20.67,False
9580,'Widget 9580',23.0,True
9581,'Widget 9581',25.33,False
9582,'Widget 9582',27.67,True
9583,'Widget 9583',30.0,False
9584,'Widget 9584',32.33,True
9585,'Widget 9585',34.67,False
9586,'Widget 9586',37.0,True
9587,'Widget 9587',39.33,False
9588,'Widget 9588',41.67,True
9589,'Widget 9589',44.0,False
9590,'Widget 9590',46.33,True
9591,'Widget 9591',48.67,False
9592,'Widget 9592',51.0,True
9593,'Widget 9593',53.33,False
9594,'Widget 9594',55.67,True
9595,'Widget 9595',58.0,False
9596,'Widget 9596',60.33,True
9597,'Widget 9597',62.67,False
9598,'Widget 9598',65.0,True
9599,'Widget 9599',67.33,False
9600,'Widget 9600',69.67,True
9601,'Widget 9601',72.0,False
9602,'Widget 9602',74.33,True
9603,'Widget 9603',76.67,False
9604,'Widget 9604',79.0,True
9605,'Widget 9605',81.33,False
9606,'Widget 9606',83.67,True
9607,'Widget 9607',86.0,False
9608,'Widget 9608',88.33,True
9609,'Widget 9609',90.67,False
9610,'Widget 9610',93.0,True
9611,'Widget 9611',95.33,False
9612,'Widget 9612',97.67,True
9613,'Widget 9613',100.0,False
9614,'Widget 9614',102.33,True
9615,'Widget 9615',104.67,False
9616,'Widget 9616',107.0,True
9617,'Widget 9617',109.33,False
9618,'Widget 9618',111.67,True
9619,'Widget 9619',114.0,False
9620,'Widget 9620',116.33,True
9621,'Widget 9621',118.67,False
9622,'Widget 9622',121.0,True
9623,'Widget 9623',123.33,False
9624,'Widget 9624',125.67,True
9625,'Widget 9625',128.0,False
9626,'Widget 9626',130.33,True
9627,'Widget 9627',132.67,False
9628,'Widget 9628',135.0,True
9629,'Widget 9629',137.33,False
9630,'Widget 9630',139.67,True
9631,'Widget 9631',142.0,False
9632,'Widget 9632',144.33,True
9633,'Widget 9633',146.67,False
9634,'Widget 9634',149.0,True
9635,'Widget 9635',151.33,False
9636,'Widget 9636',153.67,True
9637,'Widget 9637',156.0,False
9638,'Widget 9638',158.33,True
9639,'Widget 9639',160.67,False
9640,'Widget 9640',163.0,True
9641,'Widget 9641',165.33,False
9642,'Widget 9642',167.67,True
9643,'Widget 9643',3.33,False
9644,'Widget 9644',5.67,True
9645,'Widget 9645',8.0,False
9646,'Widget 9646',10.33,True
9647,'Widget 9647',12.67,False
9648,'Widget 9648',15.0,True
9649,'Widget 9649',17.33,False
9650,'Widget 9650',19.67,True
9651,'Widget 9651',22.0,False
9652,'Widget 9652',24.33,True
9653,'Widget 9653',26.67,False
9654,'Widget 9654',29.0,True
9655,'Widget 9655',31.33,False
9656,'Widget 9656',33.67,True
9657,'Widget 9657',36.0,False
9658,'Widget 9658',38.33,True
9659,'Widget 9659',40.67,False
9660,'Widget 9660',43.0,True
9661,'Widget 9661',45.33,False
9662,'Widget 9662',47.67,True
9663,'Widget 9663',50.0,False
9664,'Widget 9664',52.33,True
9665,'Widget 9665',54.67,False
9666,'Widget 9666',57.0,True
9667,'Widget 9667',59.33,False
9668,'Widget 9668',61.67,True
9669,'Widget 9669',64.0,False
9670,'Widget 9670',66.33,True
9671,'Widget 9671',68.67,False
9672,'Widget 9672',71.0,True
9673,'Widget 9673',73.33,False
9674,'Widget 9674',75.67,True
9675,'Widget 9675',78.0,False
9676,'Widget 9676',80.33,True
9677,'Widget 9677',82.67,False
9678,'Widget 9678',85.0,True
9679,'Widget 9679',87.33,False
9680,'Widget 9680',89.67,True
9681,'Widget 9681',92.0,False
9682,'Widget 9682',94.33,True
9683,'Widget 9683',96.67,False
9684,'Widget 9684',99.0,True
9685,'Widget 9685',101.33,False
9686,'Widget 9686',103.67,True
9687,'Widget 9687',106.0,False
9688,'Widget 9688',108.33,True
9689,'Widget 9689',110.67,False
9690,'Widget 9690',113.0,True
9691,'Widget 9691',115.33,False
9692,'Widget 9692',117.67,True
9693,'Widget 9693',120.0,False
9694,'Widget 9694',122.33,True
9695,'Widget 9695',124.67,False
9696,'Widget 9696',127.0,True
9697,'Widget 9697',129.33,False
9698,'Widget 9698',131.67,True
9699,'Widget 9699',134.0,False
9700,'Widget 9700',136.33,True
9701,'Widget 9701',138.67,False
9702,'Widget 9702',141.0,True
9703,'Widget 9703',143.33,False
9704,'Widget 9704',145.67,True
9705,'Widget 9705',148.0,False
9706,'Widget 9706',150.33,True
9707,'Widget 9707',152.67,False
9708,'Widget 9708',155.0,True
9709,'Widget 9709',157.33,False
9710,'Widget 9710',159.67,True
9711,'Widget 9711',162.0,False
9712,'Widget 9712',164.33,True
9713,'Widget 9713',166.67,False
9714,'Widget 9714',169.0,True
9715,'Widget 9715',4.67,False
9716,'Widget 9716',7.0,True
9717,'Widget 9717',9.33,False
9718,'Widget 9718',11.67,True
9719,'Widget 9719',14.0,False
9720,'Widget 9720',16.33,True
9721,'Widget 9721',18.67,False
9722,'Widget 9722',21.0,True
9723,'Widget 9723',23.33,False
9724,'Widget 9724',25.67,True
9725,'Widget 9725',28.0,False
9726,'Widget 9726',30.33,True
9727,'Widget 9727',32.67,False
9728,'Widget 9728',35.0,True
9729,'Widget 9729',37.33,False
9730,'Widget 9730',39.67,True
9731,'Widget 9731',42.0,False
9732,'Widget 9732',44.33,True
9733,'Widget 9733',46.67,False
9734,'Widget 9734',49.0,True
9735,'Widget 9735',51.33,False
9736,'Widget 9736',53.67,True
9737,'Widget 9737',56.0,False
9738,'Widget 9738',58.33,True
9739,'Widget 9739',60.67,False
9740,'Widget 9740',63.0,True
9741,'Widget 9741',65.33,False
9742,'Widget 9742',67.67,True
9743,'Widget 9743',70.0,False
9744,'Widget 9744',72.33,True
9745,'Widget 9745',74.67,False
9746,'Widget 9746',77.0,True
9747,'Widget 9747',79.33,False
9748,'Widget 9748',81.67,True
9749,'Widget 9749',84.0,False
9750,'Widget 9750',86.33,True
9751,'Widget 9751',88.67,False
9752,'Widget 9752',91.0,True
9753,'Widget 9753',93.33,False
9754,'Widget 9754',95.67,True
9755,'Widget 9755',98.0,False
9756,'Widget 9756',100.33,True
9757,'Widget 9757',102.67,False
9758,'Widget 9758',105.0,True
9759,'Widget 9759',107.33,False
9760,'Widget 9760',109.67,True
9761,'Widget 9761',112.0,False
9762,'Widget 9762',114.33,True
9763,'Widget 9763',116.67,False
9764,'Widget 9764',119.0,True
9765,'Widget 9765',121.33,False
9766,'Widget 9766',123.67,True
9767,'Widget 9767',126.0,False
9768,'Widget 9768',128.33,True
9769,'Widget 9769',130.67,False
9770,'Widget 9770',133.0,True
9771,'Widget 9771',135.33,False
9772,'Widget 9772',137.67,True
9773,'Widget 9773',140.0,False
9774,'Widget 9774',142.33,True
9775,'Widget 9775',144.67,False
9776,'Widget 9776',147.0,True
9777,'Widget 9777',149.33,False
9778,'Widget 9778',151.67,True
9779,'Widget 9779',154.0,False
9780,'Widget 9780',156.33,True
9781,'Widget 9781',158.67,False
9782,'Widget 9782',161.0,True
9783,'Widget 9783',163.33,False
9784,'Widget 9784',165.67,True
9785,'Widget 9785',168.0,False
9786,'Widget 9786',3.67,True
9787,'Widget 9787',6.0,False
9788,'Widget 9788',8.33,True
9789,'Widget 9789',10.67,False
9790,'Widget 9790',13.0,True
9791,'Widget 9791',15.33,False
9792,'Widget 9792',17.67,True
9793,'Widget 9793',20.0,False
9794,'Widget 9794',22.33,True
9795,'Widget 9795',24.67,False
9796,'Widget 9796',27.0,True
9797,'Widget 9797',29.33,False
9798,'Widget 9798',31.67,True
9799,'Widget 9799',34.0,False
9800,'Widget 9800',36.33,True
9801,'Widget 9801',38.67,False
9802,'Widget 9802',41.0,True
9803,'Widget 9803',43.33,False
9804,'Widget 9804',45.67,True
9805,'Widget 9805',48.0,False
9806,'Widget 9806',50.33,True
9807,'Widget 9807',52.67,False
9808,'Widget 9808',55.0,True
9809,'Widget 9809',57.33,False
9810,'Widget 9810',59.67,True
9811,'Widget 9811',62.0,False
9812,'Widget 9812',64.33,True
9813,'Widget 9813',66.67,False
9814,'Widget 9814',69.0,True
9815,'Widget 9815',71.33,False
9816,'Widget 9816',73.67,True
9817,'Widget 9817',76.0,False
9818,'Widget 9818',78.33,True
9819,'Widget 9819',80.67,False
9820,'Widget 9820',83.0,True
9821,'Widget 9821',85.33,False
9822,'Widget 9822',87.67,True
9823,'Widget 9823',90.0,False
9824,'Widget 9824',92.33,True
9825,'Widget 9825',94.67,False
9826,'Widget 9826',97.0,True
9827,'Widget 9827',99.33,False
9828,'Widget 9828',101.67,True
9829,'Widget 9829',104.0,False
9830,'Widget 9830',106.33,True
9831,'Widget 9831',108.67,False
9832,'Widget 9832',111.0,True
9833,'Widget 9833',113.33,False
9834,'Widget 9834',115.67,True
9835,'Widget 9835',118.0,False
9836,'Widget 9836',120.33,True
9837,'Widget 9837',122.67,False
9838,'Widget 9838',125.0,True
9839,'Widget 9839',127.33,False
9840,'Widget 9840',129.67,True
9841,'Widget 9841',132.0,False
9842,'Widget 9842',134.33,True
9843,'Widget 9843',136.67,False
9844,'Widget 9844',139.0,True
9845,'Widget 9845',141.33,False
9846,'Widget 9846',143.67,True
9847,'Widget 9847',146.0,False
9848,'Widget 9848',148.33,True
9849,'Widget 9849',150.67,False
9850,'Widget 9850',153.0,True
9851,'Widget 9851',155.33,False
9852,'Widget 9852',157.67,True
9853,'Widget 9853',160.0,False
9854,'Widget 9854',162.33,True
9855,'Widget 9855',164.67,False
9856,'Widget 9856',167.0,True
9857,'Widget 9857',169.33,False
9858,'Widget 9858',5.0,True
9859,'Widget 9859',7.33,False
9860,'Widget 9860',9.67,True
9861,'Widget 9861',12.0,False
9862,'Widget 9862',14.33,True
9863,'Widget 9863',16.67,False
9864,'Widget 9864',19.0,True
9865,'Widget 9865',21.33,False
9866,'Widget 9866',23.67,True
9867,'Widget 9867',26.0,False
9868,'Widget 9868',28.33,True
9869,'Widget 9869',30.67,False
9870,'Widget 9870',33.0,True
9871,'Widget 9871',35.33,False
9872,'Widget 9872',37.67,True
9873,'Widget 9873',40.0,False
9874,'Widget 9874',42.33,True
9875,'Widget 9875',44.67,False
9876,'Widget 9876',47.0,True
9877,'Widget 9877',49.33,False
9878,'Widget 9878',51.67,True
9879,'Widget 9879',54.0,False
9880,'Widget 9880',56.33,True
9881,'Widget 9881',58.67,False
9882,'Widget 9882',61.0,True
9883,'Widget 9883',63.33,False
9884,'Widget 9884',65.67,True
9885,'Widget 9885',68.0,False
9886,'Widget 9886',70.33,True
9887,'Widget 9887',72.67,False
9888,'Widget 9888',75.0,True
9889,'Widget 9889',77.33,False
9890,'Widget 9890',79.67,True
9891,'Widget 9891',82.0,False
9892,'Widget 9892',84.33,True
9893,'Widget 9893',86.67,False
9894,'Widget 9894',89.0,True
9895,'Widget 9895',91.33,False
9896,'Widget 9896',93.67,True
9897,'Widget 9897',96.0,False
9898,'Widget 9898',98.33,True
9899,'Widget 9899',100.67,False
9900,'Widget 9900',103.0,True
9901,'Widget 9901',105.33,False
9902,'Widget 9902',107.67,True
9903,'Widget 9903',110.0,False
9904,'Widget 9904',112.33,True
9905,'Widget 9905',114.67,False
9906,'Widget 9906',117.0,True
9907,'Widget 9907',119.33,False
9908,'Widget 9908',121.67,True
9909,'Widget 9909',124.0,False
9910,'Widget 9910',126.33,True
9911,'Widget 9911',128.67,False
9912,'Widget 9912',131.0,True
9913,'Widget 9913',133.33,False
9914,'Widget 9914',135.67,True
9915,'Widget 9915',138.0,False
9916,'Widget 9916',140.33,True
9917,'Widget 9917',142.67,False
9918,'Widget 9918',145.0,True
9919,'Widget 9919',147.33,False
9920,'Widget 9920',149.67,True
9921,'Widget 9921',152.0,False
9922,'Widget 9922',154.33,True
9923,'Widget 9923',156.67,False
9924,'Widget 9924',159.0,True
9925,'Widget 9925',161.33,False
9926,'Widget 9926',163.67,True
9927,'Widget 9927',166.0,False
9928,'Widget 9928',168.33,True
9929,'Widget 9929',4.0,False
9930,'Widget 9930',6.33,True
9931,'Widget 9931',8.67,False
9932,'Widget 9932',11.0,True
9933,'Widget 9933',13.33,False
9934,'Widget 9934',15.67,True
9935,'Widget 9935',18.0,False
9936,'Widget 9936',20.33,True
9937,'Widget 9937',22.67,False
9938,'Widget 9938',25.0,True
9939,'Widget 9939',27.33,False
9940,'Widget 9940',29.67,True
9941,'Widget 9941',32.0,False
9942,'Widget 9942',34.33,True
9943,'Widget 9943',36.67,False
9944,'Widget 9944',39.0,True
9945,'Widget 9945',41.33,False
9946,'Widget 9946',43.67,True
9947,'Widget 9947',46.0,False
9948,'Widget 9948',48.33,True
9949,'Widget 9949',50.67,False
9950,'Widget 9950',53.0,True
9951,'Widget 9951',55.33,False
9952,'Widget 9952',57.67,True
9953,'Widget 9953',60.0,False
9954,'Widget 9954',62.33,True
9955,'Widget 9955',64.67,False
9956,'Widget 9956',67.0,True
9957,'Widget 9957',69.33,False
9958,'Widget 9958',71.67,True
9959,'Widget 9959',74.0,False
9960,'Widget 9960',76.33,True
9961,'Widget 9961',78.67,False
9962,'Widget 9962',81.0,True
9963,'Widget 9963',83.33,False
9964,'Widget 9964',85.67,True
9965,'Widget 9965',88.0,False
9966,'Widget 9966',90.33,True
9967,'Widget 9967',92.67,False
9968,'Widget 9968',95.0,True
9969,'Widget 9969',97.33,False
9970,'Widget 9970',99.67,True
9971,'Widget 9971',102.0,False
9972,'Widget 9972',104.33,True
9973,'Widget 9973',106.67,False
9974,'Widget 9974',109.0,True
9975,'Widget 9975',111.33,False
9976,'Widget 9976',113.67,True
9977,'Widget 9977',116.0,False
9978,'Widget 9978',118.33,True
9979,'Widget 9979',120.67,False
9980,'Widget 9980',123.0,True
9981,'Widget 9981',125.33,False
9982,'Widget 9982',127.67,True
9983,'Widget 9983',130.0,False
9984,'Widget 9984',132.33,True
9985,'Widget 9985',134.67,False
9986,'Widget 9986',137.0,True
9987,'Widget 9987',139.33,False
9988,'Widget 9988',141.67,True
9989,'Widget 9989',144.0,False
9990,'Widget 9990',146.33,True
9991,'Widget 9991',148.67,False
9992,'Widget 9992',151.0,True
9993,'Widget 9993',153.33,False
9994,'Widget 9994',155.67,True
9995,'Widget 9995',158.0,False
9996,'Widget 9996',160.33,True
9997,'Widget 9997',162.67,False
9998,'Widget 9998',165.0,True
9999,'Widget 9999',167.33,False
10000,'Widget 10000',3.0,True
10001,'Widget 10001',5.33,False
10002,'Widget 10002',7.67,True
10003,'Widget 10003',10.0,False
10004,'Widget 10004',12.33,True
10005,'Widget 10005',14.67,False
10006,'Widget 10006',17.0,True
10007,'Widget 10007',19.33,False
10008,'Widget 10008',21.67,True
10009,'Widget 10009',24.0,False
10010,'Widget 10010',26.33,True
10011,'Widget 10011',28.67,False
10012,'Widget 10012',31.0,True
10013,'Widget 10013',33.33,False
10014,'Widget 10014',35.67,True
10015,'Widget 10015',38.0,False
10016,'Widget 10016',40.33,True
10017,'Widget 10017',42.67,False
10018,'Widget 10018',45.0,True
10019,'Widget 10019',47.33,False
10020,'Widget 10020',49.67,True
10021,'Widget 10021',52.0,False
10022,'Widget 10022',54.33,True
10023,'Widget 10023',56.67,False
10024,'Widget 10024',59.0,True
10025,'Widget 10025',61.33,False
10026,'Widget 10026',63.67,True
10027,'Widget 10027',66.0,False
10028,'Widget 10028',68.33,True
10029,'Widget 10029',70.67,False
10030,'Widget 10030',73.0,True
10031,'Widget 10031',75.33,False
10032,'Widget 10032',77.67,True
10033,'Widget 10033',80.0,False
10034,'Widget 10034',82.33,True
10035,'Widget 10035',84.67,False
10036,'Widget 10036',87.0,True
10037,'Widget 10037',89.33,False
10038,'Widget 10038',91.67,True
10039,'Widget 10039',94.0,False
10040,'Widget 10040',96.33,True
10041,'Widget 10041',98.67,False
10042,'Widget 10042',101.0,True
10043,'Widget 10043',103.33,False
10044,'Widget 10044',105.67,True
10045,'Widget 10045',108.0,False
10046,'Widget 10046',110.33,True
10047,'Widget 10047',112.67,False
10048,'Widget 10048',115.0,True
10049,'Widget 10049',117.33,False
10050,'Widget 10050',119.67,True
10051,'Widget 10051',122.0,False
10052,'Widget 10052',124.33,True
10053,'Widget 10053',126.67,False
10054,'Widget 10054',129.0,True
10055,'Widget 10055',131.33,False
10056,'Widget 10056',133.67,True
10057,'Widget 10057',136.0,False
10058,'Widget 10058',138.33,True
10059,'Widget 10059',140.67,False
10060,'Widget 10060',143.0,True
10061,'Widget 10061',145.33,False
10062,'Widget 10062',147.67,True
10063,'Widget 10063',150.0,False
10064,'Widget 10064',152.33,True
10065,'Widget 10065',154.67,False
10066,'Widget 10066',157.0,True
10067,'Widget 10067',159.33,False
10068,'Widget 10068',161.67,True
10069,'Widget 10069',164.0,False
10070,'Widget 10070',166.33,True
10071,'Widget 10071',168.67,False
10072,'Widget 10072',4.33,True
10073,'Widget 10073',6.67,False
10074,'Widget 10074',9.0,True
10075,'Widget 10075',11.33,False
10076,'Widget 10076',13.67,True
10077,'Widget 10077',16.0,False
10078,'Widget 10078',18.33,True
10079,'Widget 10079',20.67,False
10080,'Widget 10080',23.0,True
10081,'Widget 10081',25.33,False
10082,'Widget 10082',27.67,True
10083,'Widget 10083',30.0,False
10084,'Widget 10084',32.33,True
10085,'Widget 10085',34.67,False
10086,'Widget 10086',37.0,True
10087,'Widget 10087',39.33,False
10088,'Widget 10088',41.67,True
10089,'Widget 10089',44.0,False
10090,'Widget 10090',46.33,True
10091,'Widget 10091',48.67,False
10092,'Widget 10092',51.0,True
10093,'Widget 10093',53.33,False
10094,'Widget 10094',55.67,True
10095,'Widget 10095',58.0,False
10096,'Widget 10096',60.33,True
10097,'Widget 10097',62.67,False
10098,'Widget 10098',65.0,True
10099,'Widget 10099',67.33,False
10100,'Widget 10100',69.67,True
10101,'Widget 10101',72.0,False
10102,'Widget 10102',74.33,True
10103,'Widget 10103',76.67,False
10104,'Widget 10104',79.0,True
10105,'Widget 10105',81.33,False
10106,'Widget 10106',83.67,True
10107,'Widget 10107',86.0,False
10108,'Widget 10108',88.33,True
10109,'Widget 10109',90.67,False
10110,'Widget 10110',93.0,True
10111,'Widget 10111',95.33,False
10112,'Widget 10112',97.67,True
10113,'Widget 10113',100.0,False
10114,'Widget 10114',102.33,True
10115,'Widget 10115',104.67,False
10116,'Widget 10116',107.0,True
10117,'Widget 10117',109.33,False
10118,'Widget 10118',111.67,True
10119,'Widget 10119',114.0,False
10120,'Widget 10120',116.33,True
10121,'Widget 10121',118.67,False
10122,'Widget 10122',121.0,True
10123,'Widget 10123',123.33,False
10124,'Widget 10124',125.67,True
10125,'Widget 10125',128.0,False
10126,'Widget 10126',130.33,True
10127,'Widget 10127',132.67,False
10128,'Widget 10128',135.0,True
10129,'Widget 10129',137.33,False
10130,'Widget 10130',139.67,True
10131,'Widget 10131',142.0,False
10132,'Widget 10132',144.33,True
10133,'Widget 10133',146.67,False
10134,'Widget 10134',149.0,True
10135,'Widget 10135',151.33,False
10136,'Widget 10136',153.67,True
10137,'Widget 10137',156.0,False
10138,'Widget 10138',158.33,True
10139,'Widget 10139',160.67,False
10140,'Widget 10140',163.0,True
10141,'Widget 10141',165.33,False
10142,'Widget 10142',167.67,True
10143,'Widget 10143',3.33,False
10144,'Widget 10144',5.67,True
10145,'Widget 10145',8.0,False
10146,'Widget 10146',10.33,True
10147,'Widget 10147',12.67,False
10148,'Widget 10148',15.0,True
10149,'Widget 10149',17.33,False
10150,'Widget 10150',19.67,True
10151,'Widget 10151',22.0,False
10152,'Widget 10152',24.33,True
10153,'Widget 10153',26.67,False
10154,'Widget 10154',29.0,True
10155,'Widget 10155',31.33,False
10156,'Widget 10156',33.67,True
10157,'Widget 10157',36.0,False
10158,'Widget 10158',38.33,True
10159,'Widget 10159',40.67,False
10160,'Widget 10160',43.0,True
10161,'Widget 10161',45.33,False
10162,'Widget 10162',47.67,True
10163,'Widget 10163',50.0,False
10164,'Widget 10164',52.33,True
10165,'Widget 10165',54.67,False
10166,'Widget 10166',57.0,True
10167,'Widget 10167',59.33,False
10168,'Widget 10168',61.67,True
10169,'Widget 10169',64.0,False
10170,'Widget 10170',66.33,True
10171,'Widget 10171',68.67,False
10172,'Widget 10172',71.0,True
10173,'Widget 10173',73.33,False
10174,'Widget 10174',75.67,True
10175,'Widget 10175',78.0,False
10176,'Widget 10176',80.33,True
10177,'Widget 10177',82.67,False
10178,'Widget 10178',85.0,True
10179,'Widget 10179',87.33,False
10180,'Widget 10180',89.67,True
10181,'Widget 10181',92.0,False
10182,'Widget 10182',94.33,True
10183,'Widget 10183',96.67,False
10184,'Widget 10184',99.0,True
10185,'Widget 10185',101.33,False
10186,'Widget 10186',103.67,True
10187,'Widget 10187',106.0,False
10188,'Widget 10188',108.33,True
10189,'Widget 10189',110.67,False
10190,'Widget 10190',113.0,True
10191,'Widget 10191',115.33,False
10192,'Widget 10192',117.67,True
10193,'Widget 10193',120.0,False
10194,'Widget 10194',122.33,True
10195,'Widget 10195',124.67,False
10196,'Widget 10196',127.0,True
10197,'Widget 10197',129.33,False
10198,'Widget 10198',131.67,True
10199,'Widget 10199',134.0,False
10200,'Widget 10200',136.33,True
10201,'Widget 10201',138.67,False
10202,'Widget 10202',141.0,True
10203,'Widget 10203',143.33,False
10204,'Widget 10204',145.67,True
10205,'Widget 10205',148.0,False
10206,'Widget 10206',150.33,True
10207,'Widget 10207',152.67,False
10208,'Widget 10208',155.0,True
10209,'Widget 10209',157.33,False
10210,'Widget 10210',159.67,True
10211,'Widget 10211',162.0,False
10212,'Widget 10212',164.33,True
10213,'Widget 10213',166.67,False
10214,'Widget 10214',169.0,True
10215,'Widget 10215',4.67,False
10216,'Widget 10216',7.0,True
10217,'Widget 10217',9.33,False
10218,'Widget 10218',11.67,True
10219,'Widget 10219',14.0,False
10220,'Widget 10220',16.33,True
10221,'Widget 10221',18.67,False
10222,'Widget 10222',21.0,True
10223,'Widget 10223',23.33,False
10224,'Widget 10224',25.67,True
10225,'Widget 10225',28.0,False
10226,'Widget 10226',30.33,True
10227,'Widget 10227',32.67,False
10228,'Widget 10228',35.0,True
10229,'Widget 10229',37.33,False
10230,'Widget 10230',39.67,True
10231,'Widget 10231',42.0,False
10232,'Widget 10232',44.33,True
10233,'Widget 10233',46.67,False
10234,'Widget 10234',49.0,True
10235,'Widget 10235',51.33,False
10236,'Widget 10236',53.67,True
10237,'Widget 10237',56.0,False
10238,'Widget 10238',58.33,True
10239,'Widget 10239',60.67,False
10240,'Widget 10240',63.0,True
10241,'Widget 10241',65.33,False
10242,'Widget 10242',67.67,True
10243,'Widget 10243',70.0,False
10244,'Widget 10244',72.33,True
10245,'Widget 10245',74.67,False
10246,'Widget 10246',77.0,True
10247,'Widget 10247',79.33,False
10248,'Widget 10248',81.67,True
10249,'Widget 10249',84.0,False
10250,'Widget 10250',86.33,True
10251,'Widget 10251',88.67,False
10252,'Widget 10252',91.0,True
10253,'Widget 10253',93.33,False
10254,'Widget 10254',95.67,True
10255,'Widget 10255',98.0,False
10256,'Widget 10256',100.33,True
10257,'Widget 10257',102.67,False
10258,'Widget 10258',105.0,True
10259,'Widget 10259',107.33,False
10260,'Widget 10260',109.67,True
10261,'Widget 10261',112.0,False
10262,'Widget 10262',114.33,True
10263,'Widget 10263',116.67,False
10264,'Widget 10264',119.0,True
10265,'Widget 10265',121.33,False
10266,'Widget 10266',123.67,True
10267,'Widget 10267',126.0,False
10268,'Widget 10268',128.33,True
10269,'Widget 10269',130.67,False
10270,'Widget 10270',133.0,True
10271,'Widget 10271',135.33,False
10272,'Widget 10272',137.67,True
10273,'Widget 10273',140.0,False
10274,'Widget 10274',142.33,True
10275,'Widget 10275',144.67,False
10276,'Widget 10276',147.0,True
10277,'Widget 10277',149.33,False
10278,'Widget 10278',151.67,True
10279,'Widget 10279',154.0,False
10280,'Widget 10280',156.33,True
10281,'Widget 10281',158.67,False
10282,'Widget 10282',161.0,True
10283,'Widget 10283',163.33,False
10284,'Widget 10284',165.67,True
10285,'Widget 10285',168.0,False
10286,'Widget 10286',3.67,True
10287,'Widget 10287',6.0,False
10288,'Widget 10288',8.33,True
10289,'Widget 10289',10.67,False
10290,'Widget 10290',13.0,True
10291,'Widget 10291',15.33,False
10292,'Widget 10292',17.67,True
10293,'Widget 10293',20.0,False
10294,'Widget 10294',22.33,True
10295,'Widget 10295',24.67,False
10296,'Widget 10296',27.0,True
10297,'Widget 10297',29.33,False
10298,'Widget 10298',31.67,True
10299,'Widget 10299',34.0,False
10300,'Widget 10300',36.33,True
10301,'Widget 10301',38.67,False
10302,'Widget 10302',41.0,True
10303,'Widget 10303',43.33,False
10304,'Widget 10304',45.67,True
10305,'Widget 10305',48.0,False
10306,'Widget 10306',50.33,True
10307,'Widget 10307',52.67,False
10308,'Widget 10308',55.0,True
10309,'Widget 10309',57.33,False
10310,'Widget 10310',59.67,True
10311,'Widget 10311',62.0,False
10312,'Widget 10312',64.33,True
10313,'Widget 10313',66.67,False
10314,'Widget 10314',69.0,True
10315,'Widget 10315',71.33,False
10316,'Widget 10316',73.67,True
10317,'Widget 10317',76.0,False
10318,'Widget 10318',78.33,True
10319,'Widget 10319',80.67,False
10320,'Widget 10320',83.0,True
10321,'Widget 10321',85.33,False
10322,'Widget 10322',87.67,True
10323,'Widget 10323',90.0,False
10324,'Widget 10324',92.33,True
10325,'Widget 10325',94.67,False
10326,'Widget 10326',97.0,True
10327,'Widget 10327',99.33,False
10328,'Widget 10328',101.67,True
10329,'Widget 10329',104.0,False
10330,'Widget 10330',106.33,True
10331,'Widget 10331',108.67,False
10332,'Widget 10332',111.0,True
10333,'Widget 10333',113.33,False
10334,'Widget 10334',115.67,True
10335,'Widget 10335',118.0,False
10336,'Widget 10336',120.33,True
10337,'Widget 10337',122.67,False
10338,'Widget 10338',125.0,True
10339,'Widget 10339',127.33,False
10340,'Widget 10340',129.67,True
10341,'Widget 10341',132.0,False
10342,'Widget 10342',134.33,True
10343,'Widget 10343',136.67,False
10344,'Widget 10344',139.0,True
10345,'Widget 10345',141.33,False
10346,'Widget 10346',143.67,True
10347,'Widget 10347',146.0,False
10348,'Widget 10348',148.33,True
10349,'Widget 10349',150.67,False
10350,'Widget 10350',153.0,True
10351,'Widget 10351',155.33,False
10352,'Widget 10352',157.67,True
10353,'Widget 10353',160.0,False
10354,'Widget 10354',162.33,True
10355,'Widget 10355',164.67,False
10356,'Widget 10356',167.0,True
10357,'Widget 10357',169.33,False
10358,'Widget 10358',5.0,True
10359,'Widget 10359',7.33,False
10360,'Widget 10360',9.67,True
10361,'Widget 10361',12.0,False
10362,'Widget 10362',14.33,True
10363,'Widget 10363',16.67,False
10364,'Widget 10364',19.0,True
10365,'Widget 10365',21.33,False
10366,'Widget 10366',23.67,True
10367,'Widget 10367',26.0,False
10368,'Widget 10368',28.33,True
10369,'Widget 10369',30.67,False
10370,'Widget 10370',33.0,True
10371,'Widget 10371',35.33,False
10372,'Widget 10372',37.67,True
10373,'Widget 10373',40.0,False
10374,'Widget 10374',42.33,True
10375,'Widget 10375',44.67,False
10376,'Widget 10376',47.0,True
10377,'Widget 10377',49.33,False
10378,'Widget 10378',51.67,True
10379,'Widget 10379',54.0,False
10380,'Widget 10380',56.33,True
10381,'Widget 10381',58.67,False
10382,'Widget 10382',61.0,True
10383,'Widget 10383',63.33,False
10384,'Widget 10384',65.67,True
10385,'Widget 10385',68.0,False
10386,'Widget 10386',70.33,True
10387,'Widget 10387',72.67,False
10388,'Widget 10388',75.0,True
10389,'Widget 10389',77.33,False
10390,'Widget 10390',79.67,True
10391,'Widget 10391',82.0,False
10392,'Widget 10392',84.33,True
10393,'Widget 10393',86.67,False
10394,'Widget 10394',89.0,True
10395,'Widget 10395',91.33,False
10396,'Widget 10396',93.67,True
10397,'Widget 10397',96.0,False
10398,'Widget 10398',98.33,True
10399,'Widget 10399',100.67,False
10400,'Widget 10400',103.0,True
10401,'Widget 10401',105.33,False
10402,'Widget 10402',107.67,True
10403,'Widget 10403',110.0,False
10404,'Widget 10404',112.33,True
10405,'Widget 10405',114.67,False
10406,'Widget 10406',117.0,True
10407,'Widget 10407',119.33,False
10408,'Widget 10408',121.67,True
10409,'Widget 10409',124.0,False
10410,'Widget 10410',126.33,True
10411,'Widget 10411',128.67,False
10412,'Widget 10412',131.0,True
10413,'Widget 10413',133.33,False
10414,'Widget 10414',135.67,True
10415,'Widget 10415',138.0,False
10416,'Widget 10416',140.33,True
10417,'Widget 10417',142.67,False
10418,'Widget 10418',145.0,True
10419,'Widget 10419',147.33,False
10420,'Widget 10420',149.67,True
10421,'Widget 10421',152.0,False
10422,'Widget 10422',154.33,True
10423,'Widget 10423',156.67,False
10424,'Widget 10424',159.0,True
10425,'Widget 10425',161.33,False
10426,'Widget 10426',163.67,True
10427,'Widget 10427',166.0,False
10428,'Widget 10428',168.33,True
10429,'Widget 10429',4.0,False
10430,'Widget 10430',6.33,True
10431,'Widget 10431',8.67,False
10432,'Widget 10432',11.0,True
10433,'Widget 10433',13.33,False
10434,'Widget 10434',15.67,True
10435,'Widget 10435',18.0,False
10436,'Widget 10436',20.33,True
10437,'Widget 10437',22.67,False
10438,'Widget 10438',25.0,True
10439,'Widget 10439',27.33,False
10440,'Widget 10440',29.67,True
10441,'Widget 10441',32.0,False
10442,'Widget 10442',34.33,True
10443,'Widget 10443',36.67,False
10444,'Widget 10444',39.0,True
10445,'Widget 10445',41.33,False
10446,'Widget 10446',43.67,True
10447,'Widget 10447',46.0,False
10448,'Widget 10448',48.33,True
10449,'Widget 10449',50.67,False
10450,'Widget 10450',53.0,True
10451,'Widget 10451',55.33,False
10452,'Widget 10452',57.67,True
10453,'Widget 10453',60.0,False
10454,'Widget 10454',62.33,True
10455,'Widget 10455',64.67,False
10456,'Widget 10456',67.0,True
10457,'Widget 10457',69.33,False
10458,'Widget 10458',71.67,True
10459,'Widget 10459',74.0,False
10460,'Widget 10460',76.33,True
10461,'Widget 10461',78.67,False
10462,'Widget 10462',81.0,True
10463,'Widget 10463',83.33,False
10464,'Widget 10464',85.67,True
10465,'Widget 10465',88.0,False
10466,'Widget 10466',90.33,True
10467,'Widget 10467',92.67,False
10468,'Widget 10468',95.0,True
10469,'Widget 10469',97.33,False
10470,'Widget 10470',99.67,True
10471,'Widget 10471',102.0,False
10472,'Widget 10472',104.33,True
10473,'Widget 10473',106.67,False
10474,'Widget 10474',109.0,True
10475,'Widget 10475',111.33,False
10476,'Widget 10476',113.67,True
10477,'Widget 10477',116.0,False
10478,'Widget 10478',118.33,True
10479,'Widget 10479',120.67,False
10480,'Widget 10480',123.0,True
10481,'Widget 10481',125.33,False
10482,'Widget 10482',127.67,True
10483,'Widget 10483',130.0,False
10484,'Widget 10484',132.33,True
10485,'Widget 10485',134.67,False
10486,'Widget 10486',137.0,True
10487,'Widget 10487',139.33,False
10488,'Widget 10488',141.67,True
10489,'Widget 10489',144.0,False
10490,'Widget 10490',146.33,True
10491,'Widget 10491',148.67,False
10492,'Widget 10492',151.0,True
10493,'Widget 10493',153.33,False
10494,'Widget 10494',155.67,True
10495,'Widget 10495',158.0,False
10496,'Widget 10496',160.33,True
10497,'Widget 10497',162.67,False
10498,'Widget 10498',165.0,True
10499,'Widget 10499',167.33,False
10500,'Widget 10500',3.0,True
10501,'Widget 10501',5.33,False
10502,'Widget 10502',7.67,True
10503,'Widget 10503',10.0,False
10504,'Widget 10504',12.33,True
10505,'Widget 10505',14.67,False
10506,'Widget 10506',17.0,True
10507,'Widget 10507',19.33,False
10508,'Widget 10508',21.67,True
10509,'Widget 10509',24.0,False
10510,'Widget 10510',26.33,True
10511,'Widget 10511',28.67,False
10512,'Widget 10512',31.0,True
10513,'Widget 10513',33.33,False
10514,'Widget 10514',35.67,True
10515,'Widget 10515',38.0,False
10516,'Widget 10516',40.33,True
10517,'Widget 10517',42.67,False
10518,'Widget 10518',45.0,True
10519,'Widget 10519',47.33,False
10520,'Widget 10520',49.67,True
10521,'Widget 10521',52.0,False
10522,'Widget 10522',54.33,True
10523,'Widget 10523',56.67,False
10524,'Widget 10524',59.0,True
10525,'Widget 10525',61.33,False
10526,'Widget 10526',63.67,True
10527,'Widget 10527',66.0,False
10528,'Widget 10528',68.33,True
10529,'Widget 10529',70.67,False
10530,'Widget 10530',73.0,True
10531,'Widget 10531',75.33,False
10532,'Widget 10532',77.67,True
10533,'Widget 10533',80.0,False
10534,'Widget 10534',82.33,True
10535,'Widget 10535',84.67,False
10536,'Widget 10536',87.0,True
10537,'Widget 10537',89.33,False
10538,'Widget 10538',91.67,True
10539,'Widget 10539',94.0,False
10540,'Widget 10540',96.33,True
10541,'Widget 10541',98.67,False
10542,'Widget 10542',101.0,True
10543,'Widget 10543',103.33,False
10544,'Widget 10544',105.67,True
10545,'Widget 10545',108.0,False
10546,'Widget 10546',110.33,True
10547,'Widget 10547',112.67,False
10548,'Widget 10548',115.0,True
10549,'Widget 10549',117.33,False
10550,'Widget 10550',119.67,True
10551,'Widget 10551',122.0,False
10552,'Widget 10552',124.33,True
10553,'Widget 10553',126.67,False
10554,'Widget 10554',129.0,True
10555,'Widget 10555',131.33,False
10556,'Widget 10556',133.67,True
10557,'Widget 10557',136.0,False
10558,'Widget 10558',138.33,True
10559,'Widget 10559',140.67,False
10560,'Widget 10560',143.0,True
10561,'Widget 10561',145.33,False
10562,'Widget 10562',147.67,True
10563,'Widget 10563',150.0,False
10564,'Widget 10564',152.33,True
10565,'Widget 10565',154.67,False
10566,'Widget 10566',157.0,True
10567,'Widget 10567',159.33,False
10568,'Widget 10568',161.67,True
10569,'Widget 10569',164.0,False
10570,'Widget 10570',166.33,True
10571,'Widget 10571',168.67,False
10572,'Widget 10572',4.33,True
10573,'Widget 10573',6.67,False
10574,'Widget 10574',9.0,True
10575,'Widget 10575',11.33,False
10576,'Widget 10576',13.67,True
10577,'Widget 10577',16.0,False
10578,'Widget 10578',18.33,True
10579,'Widget 10579',20.67,False
10580,'Widget 10580',23.0,True
10581,'Widget 10581',25.33,False
10582,'Widget 10582',27.67,True
10583,'Widget 10583',30.0,False
10584,'Widget 10584',32.33,True
10585,'Widget 10585',34.67,False
10586,'Widget 10586',37.0,True
10587,'Widget 10587',39.33,False
10588,'Widget 10588',41.67,True
10589,'Widget 10589',44.0,False
10590,'Widget 10590',46.33,True
10591,'Widget 10591',48.67,False
10592,'Widget 10592',51.0,True
10593,'Widget 10593',53.33,False
10594,'Widget 10594',55.67,True
10595,'Widget 10595',58.0,False
10596,'Widget 10596',60.33,True
10597,'Widget 10597',62.67,False
10598,'Widget 10598',65.0,True
10599,'Widget 10599',67.33,False
10600,'Widget 10600',69.67,True
10601,'Widget 10601',72.0,False
10602,'Widget 10602',74.33,True
10603,'Widget 10603',76.67,False
10604,'Widget 10604',79.0,True
10605,'Widget 10605',81.33,False
10606,'Widget 10606',83.67,True
10607,'Widget 10607',86.0,False
10608,'Widget 10608',88.33,True
10609,'Widget 10609',90.67,False
10610,'Widget 10610',93.0,True
10611,'Widget 10611',95.33,False
10612,'Widget 10612',97.67,True
10613,'Widget 10613',100.0,False
10614,'Widget 10614',102.33,True
10615,'Widget 10615',104.67,False
10616,'Widget 10616',107.0,True
10617,'Widget 10617',109.33,False
10618,'Widget 10618',111.67,True
10619,'Widget 10619',114.0,False
10620,'Widget 10620',116.33,True
10621,'Widget 10621',118.67,False
10622,'Widget 10622',121.0,True
10623,'Widget 10623',123.33,False
10624,'Widget 10624',125.67,True
10625,'Widget 10625',128.0,False
10626,'Widget 10626',130.33,True
10627,'Widget 10627',132.67,False
10628,'Widget 10628',135.0,True
10629,'Widget 10629',137.33,False
10630,'Widget 10630',139.67,True
10631,'Widget 10631',142.0,False
10632,'Widget 10632',144.33,True
10633,'Widget 10633',146.67,False
10634,'Widget 10634',149.0,True
10635,'Widget 10635',151.33,False
10636,'Widget 10636',153.67,True
10637,'Widget 10637',156.0,False
10638,'Widget 10638',158.33,True
10639,'Widget 10639',160.67,False
10640,'Widget 10640',163.0,True
10641,'Widget 10641',165.33,False
10642,'Widget 10642',167.67,True
10643,'Widget 10643',3.33,False
10644,'Widget 10644',5.67,True
10645,'Widget 10645',8.0,False
10646,'Widget 10646',10.33,True
10647,'Widget 10647',12.67,False
10648,'Widget 10648',15.0,True
10649,'Widget 10649',17.33,False
10650,'Widget 10650',19.67,True
10651,'Widget 10651',22.0,False
10652,'Widget 10652',24.33,True
10653,'Widget 10653',26.67,False
10654,'Widget 10654',29.0,True
10655,'Widget 10655',31.33,False
10656,'Widget 10656',33.67,True
10657,'Widget 10657',36.0,False
10658,'Widget 10658',38.33,True
10659,'Widget 10659',40.67,False
10660,'Widget 10660',43.0,True
10661,'Widget 10661',45.33,False
10662,'Widget 10662',47.67,True
10663,'Widget 10663',50.0,False
10664,'Widget 10664',52.33,True
10665,'Widget 10665',54.67,False
10666,'Widget 10666',57.0,True
10667,'Widget 10667',59.33,False
10668,'Widget 10668',61.67,True
10669,'Widget 10669',64.0,False
10670,'Widget 10670',66.33,True
10671,'Widget 10671',68.67,False
10672,'Widget 10672',71.0,True
10673,'Widget 10673',73.33,False
10674,'Widget 10674',75.67,True
10675,'Widget 10675',78.0,False
10676,'Widget 10676',80.33,True
10677,'Widget 10677',82.67,False
10678,'Widget 10678',85.0,True
10679,'Widget 10679',87.33,False
10680,'Widget 10680',89.67,True
10681,'Widget 10681',92.0,False
10682,'Widget 10682',94.33,True
10683,'Widget 10683',96.67,False
10684,'Widget 10684',99.0,True
10685,'Widget 10685',101.33,False
10686,'Widget 10686',103.67,True
10687,'Widget 10687',106.0,False
10688,'Widget 10688',108.33,True
10689,'Widget 10689',110.67,False
10690,'Widget 10690',113.0,True
10691,'Widget 10691',115.33,False
10692,'Widget 10692',117.67,True
10693,'Widget 10693',120.0,False
10694,'Widget 10694',122.33,True
10695,'Widget 10695',124.67,False
10696,'Widget 10696',127.0,True
10697,'Widget 10697',129.33,False
10698,'Widget 10698',131.67,True
10699,'Widget 10699',134.0,False
10700,'Widget 10700',136.33,True
10701,'Widget 10701',138.67,False
10702,'Widget 10702',141.0,True
10703,'Widget 10703',143.33,False
10704,'Widget 10704',145.67,True
10705,'Widget 10705',148.0,False
10706,'Widget 10706',150.33,True
10707,'Widget 10707',152.67,False
10708,'Widget 10708',155.0,True
10709,'Widget 10709',157.33,False
10710,'Widget 10710',159.67,True
10711,'Widget 10711',162.0,False
10712,'Widget 10712',164.33,True
10713,'Widget 10713',166.67,False
10714,'Widget 10714',169.0,True
10715,'Widget 10715',4.67,False
10716,'Widget 10716',7.0,True
10717,'Widget 10717',9.33,False
10718,'Widget 10718',11.67,True
10719,'Widget 10719',14.0,False
10720,'Widget 10720',16.33,True
10721,'Widget 10721',18.67,False
10722,'Widget 10722',21.0,True
10723,'Widget 10723',23.33,False
10724,'Widget 10724',25.67,True
10725,'Widget 10725',28.0,False
10726,'Widget 10726',30.33,True
10727,'Widget 10727',32.67,False
10728,'Widget 10728',35.0,True
10729,'Widget 10729',37.33,False
10730,'Widget 10730',39.67,True
10731,'Widget 10731',42.0,False
10732,'Widget 10732',44.33,True
10733,'Widget 10733',46.67,False
10734,'Widget 10734',49.0,True
10735,'Widget 10735',51.33,False
10736,'Widget 10736',53.67,True
10737,'Widget 10737',56.0,False
10738,'Widget 10738',58.33,True
10739,'Widget 10739',60.67,False
10740,'Widget 10740',63.0,True
10741,'Widget 10741',65.33,False
10742,'Widget 10742',67.67,True
10743,'Widget 10743',70.0,False
10744,'Widget 10744',72.33,True
10745,'Widget 10745',74.67,False
10746,'Widget 10746',77.0,True
10747,'Widget 10747',79.33,False
10748,'Widget 10748',81.67,True
10749,'Widget 10749',84.0,False
10750,'Widget 10750',86.33,True
10751,'Widget 10751',88.67,False
10752,'Widget 10752',91.0,True
10753,'Widget 10753',93.33,False
10754,'Widget 10754',95.67,True
10755,'Widget 10755',98.0,False
10756,'Widget 10756',100.33,True
10757,'Widget 10757',102.67,False
10758,'Widget 10758',105.0,True
10759,'Widget 10759',107.33,False
10760,'Widget 10760',109.67,True
10761,'Widget 10761',112.0,False
10762,'Widget 10762',114.33,True
10763,'Widget 10763',116.67,False
10764,'Widget 10764',119.0,True
10765,'Widget 10765',121.33,False
10766,'Widget 10766',123.67,True
10767,'Widget 10767',126.0,False
10768,'Widget 10768',128.33,True
10769,'Widget 10769',130.67,False
10770,'Widget 10770',133.0,True
10771,'Widget 10771',135.33,False
10772,'Widget 10772',137.67,True
10773,'Widget 10773',140.0,False
10774,'Widget 10774',142.33,True
10775,'Widget 10775',144.67,False
10776,'Widget 10776',147.0,True
10777,'Widget 10777',149.33,False
10778,'Widget 10778',151.67,True
10779,'Widget 10779',154.0,False
10780,'Widget 10780',156.33,True
10781,'Widget 10781',158.67,False
10782,'Widget 10782',161.0,True
10783,'Widget 10783',163.33,False
10784,'Widget 10784',165.67,True
10785,'Widget 10785',168.0,False
10786,'Widget 10786',3.67,True
10787,'Widget 10787',6.0,False
10788,'Widget 10788',8.33,True
10789,'Widget 10789',10.67,False
10790,'Widget 10790',13.0,True
10791,'Widget 10791',15.33,False
10792,'Widget 10792',17.67,True
10793,'Widget 10793',20.0,False
10794,'Widget 10794',22.33,True
10795,'Widget 10795',24.67,False
10796,'Widget 10796',27.0,True
10797,'Widget 10797',29.33,False
10798,'Widget 10798',31.67,True
10799,'Widget 10799',34.0,False
10800,'Widget 10800',36.33,True
10801,'Widget 10801',38.67,False
10802,'Widget 10802',41.0,True
10803,'Widget 10803',43.33,False
10804,'Widget 10804',45.67,True
10805,'Widget 10805',48.0,False
10806,'Widget 10806',50.33,True
10807,'Widget 10807',52.67,False
10808,'Widget 10808',55.0,True
10809,'Widget 10809',57.33,False
10810,'Widget 10810',59.67,True
10811,'Widget 10811',62.0,False
10812,'Widget 10812',64.33,True
10813,'Widget 10813',66.67,False
10814,'Widget 10814',69.0,True
10815,'Widget 10815',71.33,False
10816,'Widget 10816',73.67,True
10817,'Widget 10817',76.0,False
10818,'Widget 10818',78.33,True
10819,'Widget 10819',80.67,False
10820,'Widget 10820',83.0,True
10821,'Widget 10821',85.33,False
10822,'Widget 10822',87.67,True
10823,'Widget 10823',90.0,False
10824,'Widget 10824',92.33,True
10825,'Widget 10825',94.67,False
10826,'Widget 10826',97.0,True
10827,'Widget 10827',99.33,False
10828,'Widget 10828',101.67,True
10829,'Widget 10829',104.0,False
10830,'Widget 10830',106.33,True
10831,'Widget 10831',108.67,False
10832,'Widget 10832',111.0,True
10833,'Widget 10833',113.33,False
10834,'Widget 10834',115.67,True
10835,'Widget 10835',118.0,False
10836,'Widget 10836',120.33,True
10837,'Widget 10837',122.67,False
10838,'Widget 10838',125.0,True
10839,'Widget 10839',127.33,False
10840,'Widget 10840',129.67,True
10841,'Widget 10841',132.0,False
10842,'Widget 10842',134.33,True
10843,'Widget 10843',136.67,False
10844,'Widget 10844',139.0,True
10845,'Widget 10845',141.33,False
10846,'Widget 10846',143.67,True
10847,'Widget 10847',146.0,False
10848,'Widget 10848',148.33,True
10849,'Widget 10849',150.67,False
10850,'Widget 10850',153.0,True
10851,'Widget 10851',155.33,False
10852,'Widget 10852',157.67,True
10853,'Widget 10853',160.0,False
10854,'Widget 10854',162.33,True
10855,'Widget 10855',164.67,False
10856,'Widget 10856',167.0,True
10857,'Widget 10857',169.33,False
10858,'Widget 10858',5.0,True
10859,'Widget 10859',7.33,False
10860,'Widget 10860',9.67,True
10861,'Widget 10861',12.0,False
10862,'Widget 10862',14.33,True
10863,'Widget 10863',16.67,False
10864,'Widget 10864',19.0,True
10865,'Widget 10865',21.33,False
10866,'Widget 10866',23.67,True
10867,'Widget 10867',26.0,False
10868,'Widget 10868',28.33,True
10869,'Widget 10869',30.67,False
10870,'Widget 10870',33.0,True
10871,'Widget 10871',35.33,False
10872,'Widget 10872',37.67,True
10873,'Widget 10873',40.0,False
10874,'Widget 10874',42.33,True
10875,'Widget 10875',44.67,False
10876,'Widget 10876',47.0,True
10877,'Widget 10877',49.33,False
10878,'Widget 10878',51.67,True
10879,'Widget 10879',54.0,False
10880,'Widget 10880',56.33,True
10881,'Widget 10881',58.67,False
10882,'Widget 10882',61.0,True
10883,'Widget 10883',63.33,False
10884,'Widget 10884',65.67,True
10885,'Widget 10885',68.0,False
10886,'Widget 10886',70.33,True
10887,'Widget 10887',72.67,False
10888,'Widget 10888',75.0,True
10889,'Widget 10889',77.33,False
10890,'Widget 10890',79.67,True
10891,'Widget 10891',82.0,False
10892,'Widget 10892',84.33,True
10893,'Widget 10893',86.67,False
10894,'Widget 10894',89.0,True
10895,'Widget 10895',91.33,False
10896,'Widget 10896',93.67,True
10897,'Widget 10897',96.0,False
10898,'Widget 10898',98.33,True
10899,'Widget 10899',100.67,False
10900,'Widget 10900',103.0,True
10901,'Widget 10901',105.33,False
10902,'Widget 10902',107.67,True
10903,'Widget 10903',110.0,False
10904,'Widget 10904',112.33,True
10905,'Widget 10905',114.67,False
10906,'Widget 10906',117.0,True
10907,'Widget 10907',119.33,False
10908,'Widget 10908',121.67,True
10909,'Widget 10909',124.0,False
10910,'Widget 10910',126.33,True
10911,'Widget 10911',128.67,False
10912,'Widget 10912',131.0,True
10913,'Widget 10913',133.33,False
10914,'Widget 10914',135.67,True
10915,'Widget 10915',138.0,False
10916,'Widget 10916',140.33,True
10917,'Widget 10917',142.67,False
10918,'Widget 10918',145.0,True
10919,'Widget 10919',147.33,False
10920,'Widget 10920',149.67,True
10921,'Widget 10921',152.0,False
10922,'Widget 10922',154.33,True
10923,'Widget 10923',156.67,False
10924,'Widget 10924',159.0,True
10925,'Widget 10925',161.33,False
10926,'Widget 10926',163.67,True
10927,'Widget 10927',166.0,False
10928,'Widget 10928',168.33,True
10929,'Widget 10929',4.0,False
10930,'Widget 10930',6.33,True
10931,'Widget 10931',8.67,False
10932,'Widget 10932',11.0,True
10933,'Widget 10933',13.33,False
10934,'Widget 10934',15.67,True
10935,'Widget 10935',18.0,False
10936,'Widget 10936',20.33,True
10937,'Widget 10937',22.67,False
10938,'Widget 10938',25.0,True
10939,'Widget 10939',27.33,False
10940,'Widget 10940',29.67,True
10941,'Widget 10941',32.0,False
10942,'Widget 10942',34.33,True
10943,'Widget 10943',36.67,False
10944,'Widget 10944',39.0,True
10945,'Widget 10945',41.33,False
10946,'Widget 10946',43.67,True
10947,'Widget 10947',46.0,False
10948,'Widget 10948',48.33,True
10949,'Widget 10949',50.67,False
10950,'Widget 10950',53.0,True
10951,'Widget 10951',55.33,False
10952,'Widget 10952',57.67,True
10953,'Widget 10953',60.0,False
10954,'Widget 10954',62.33,True
10955,'Widget 10955',64.67,False
10956,'Widget 10956',67.0,True
10957,'Widget 10957',69.33,False
10958,'Widget 10958',71.67,True
10959,'Widget 10959',74.0,False
10960,'Widget 10960',76.33,True
10961,'Widget 10961',78.67,False
10962,'Widget 10962',81.0,True
10963,'Widget 10963',83.33,False
10964,'Widget 10964',85.67,True
10965,'Widget 10965',88.0,False
10966,'Widget 10966',90.33,True
10967,'Widget 10967',92.67,False
10968,'Widget 10968',95.0,True
10969,'Widget 10969',97.33,False
10970,'Widget 10970',99.67,True
10971,'Widget 10971',102.0,False
10972,'Widget 10972',104.33,True
10973,'Widget 10973',106.67,False
10974,'Widget 10974',109.0,True
10975,'Widget 10975',111.33,False
10976,'Widget 10976',113.67,True
10977,'Widget 10977',116.0,False
10978,'Widget 10978',118.33,True
10979,'Widget 10979',120.67,False
10980,'Widget 10980',123.0,True
10981,'Widget 10981',125.33,False
10982,'Widget 10982',127.67,True
10983,'Widget 10983',130.0,False
10984,'Widget 10984',132.33,True
10985,'Widget 10985',134.67,False
10986,'Widget 10986',137.0,True
10987,'Widget 10987',139.33,False
10988,'Widget 10988',141.67,True
10989,'Widget 10989',144.0,False
10990,'Widget 10990',146.33,True
10991,'Widget 10991',148.67,False
10992,'Widget 10992',151.0,True
10993,'Widget 10993',153.33,False
10994,'Widget 10994',155.67,True
10995,'Widget 10995',158.0,False
10996,'Widget 10996',160.33,True
10997,'Widget 10997',162.67,False
10998,'Widget 10998',165.0,True
10999,'Widget 10999',167.33,False
11000,'Widget 11000',3.0,True
11001,'Widget 11001',5.33,False
11002,'Widget 11002',7.67,True
11003,'Widget 11003',10.0,False
11004,'Widget 11004',12.33,True
11005,'Widget 11005',14.67,False
11006,'Widget 11006',17.0,True
11007,'Widget 11007',19.33,False
11008,'Widget 11008',21.67,True
11009,'Widget 11009',24.0,False
11010,'Widget 11010',26.33,True
11011,'Widget 11011',28.67,False
11012,'Widget 11012',31.0,True
11013,'Widget 11013',33.33,False
11014,'Widget 11014',35.67,True
11015,'Widget 11015',38.0,False
11016,'Widget 11016',40.33,True
11017,'Widget 11017',42.67,False
11018,'Widget 11018',45.0,True
11019,'Widget 11019',47.33,False
11020,'Widget 11020',49.67,True
11021,'Widget 11021',52.0,False
11022,'Widget 11022',54.33,True
11023,'Widget 11023',56.67,False
11024,'Widget 11024',59.0,True
11025,'Widget 11025',61.33,False
11026,'Widget 11026',63.67,True
11027,'Widget 11027',66.0,False
11028,'Widget 11028',68.33,True
11029,'Widget 11029',70.67,False
11030,'Widget 11030',73.0,True
11031,'Widget 11031',75.33,False
11032,'Widget 11032',77.67,True
11033,'Widget 11033',80.0,False
11034,'Widget 11034',82.33,True
11035,'Widget 11035',84.67,False
11036,'Widget 11036',87.0,True
11037,'Widget 11037',89.33,False
11038,'Widget 11038',91.67,True
11039,'Widget 11039',94.0,False
11040,'Widget 11040',96.33,True
11041,'Widget 11041',98.67,False
11042,'Widget 11042',101.0,True
11043,'Widget 11043',103.33,False
11044,'Widget 11044',105.67,True
11045,'Widget 11045',108.0,False
11046,'Widget 11046',110.33,True
11047,'Widget 11047',112.67,False
11048,'Widget 11048',115.0,True
11049,'Widget 11049',117.33,False
11050,'Widget 11050',119.67,True
11051,'Widget 11051',122.0,False
11052,'Widget 11052',124.33,True
11053,'Widget 11053',126.67,False
11054,'Widget 11054',129.0,True
11055,'Widget 11055',131.33,False
11056,'Widget 11056',133.67,True
11057,'Widget 11057',136.0,False
11058,'Widget 11058',138.33,True
11059,'Widget 11059',140.67,False
11060,'Widget 11060',143.0,True
11061,'Widget 11061',145.33,False
11062,'Widget 11062',147.67,True
11063,'Widget 11063',150.0,False
11064,'Widget 11064',152.33,True
11065,'Widget 11065',154.67,False
11066,'Widget 11066',157.0,True
11067,'Widget 11067',159.33,False
11068,'Widget 11068',161.67,True
11069,'Widget 11069',164.0,False
11070,'Widget 11070',166.33,True
11071,'Widget 11071',168.67,False
11072,'Widget 11072',4.33,True
11073,'Widget 11073',6.67,False
11074,'Widget 11074',9.0,True
11075,'Widget 11075',11.33,False
11076,'Widget 11076',13.67,True
11077,'Widget 11077',16.0,False
11078,'Widget 11078',18.33,True
11079,'Widget 11079',20.67,False
11080,'Widget 11080',23.0,True
11081,'Widget 11081',25.33,False
11082,'Widget 11082',27.67,True
11083,'Widget 11083',30.0,False
11084,'Widget 11084',32.33,True
11085,'Widget 11085',34.67,False
11086,'Widget 11086',37.0,True
11087,'Widget 11087',39.33,False
11088,'Widget 11088',41.67,True
11089,'Widget 11089',44.0,False
11090,'Widget 11090',46.33,True
11091,'Widget 11091',48.67,False
11092,'Widget 11092',51.0,True
11093,'Widget 11093',53.33,False
11094,'Widget 11094',55.67,True
11095,'Widget 11095',58.0,False
11096,'Widget 11096',60.33,True
11097,'Widget 11097',62.67,False
11098,'Widget 11098',65.0,True
11099,'Widget 11099',67.33,False
11100,'Widget 11100',69.67,True
11101,'Widget 11101',72.0,False
11102,'Widget 11102',74.33,True
11103,'Widget 11103',76.67,False
11104,'Widget 11104',79.0,True
11105,'Widget 11105',81.33,False
11106,'Widget 11106',83.67,True
11107,'Widget 11107',86.0,False
11108,'Widget 11108',88.33,True
11109,'Widget 11109',90.67,False
11110,'Widget 11110',93.0,True
11111,'Widget 11111',95.33,False
11112,'Widget 11112',97.67,True
11113,'Widget 11113',100.0,False
11114,'Widget 11114',102.33,True
11115,'Widget 11115',104.67,False
11116,'Widget 11116',107.0,True
11117,'Widget 11117',109.33,False
11118,'Widget 11118',111.67,True
11119,'Widget 11119',114.0,False
11120,'Widget 11120',116.33,True
11121,'Widget 11121',118.67,False
11122,'Widget 11122',121.0,True
11123,'Widget 11123',123.33,False
11124,'Widget 11124',125.67,True
11125,'Widget 11125',128.0,False
11126,'Widget 11126',130.33,True
11127,'Widget 11127',132.67,False
11128,'Widget 11128',135.0,True
11129,'Widget 11129',137.33,False
11130,'Widget 11130',139.67,True
11131,'Widget 11131',142.0,False
11132,'Widget 11132',144.33,True
11133,'Widget 11133',146.67,False
11134,'Widget 11134',149.0,True
11135,'Widget 11135',151.33,False
11136,'Widget 11136',153.67,True
11137,'Widget 11137',156.0,False
11138,'Widget 11138',158.33,True
11139,'Widget 11139',160.67,False
11140,'Widget 11140',163.0,True
11141,'Widget 11141',165.33,False
11142,'Widget 11142',167.67,True
11143,'Widget 11143',3.33,False
11144,'Widget 11144',5.67,True
11145,'Widget 11145',8.0,False
11146,'Widget 11146',10.33,True
11147,'Widget 11147',12.67,False
11148,'Widget 11148',15.0,True
11149,'Widget 11149',17.33,False
11150,'Widget 11150',19.67,True
11151,'Widget 11151',22.0,False
11152,'Widget 11152',24.33,True
11153,'Widget 11153',26.67,False
11154,'Widget 11154',29.0,True
11155,'Widget 11155',31.33,False
11156,'Widget 11156',33.67,True
11157,'Widget 11157',36.0,False
11158,'Widget 11158',38.33,True
11159,'Widget 11159',40.67,False
11160,'Widget 11160',43.0,True
11161,'Widget 11161',45.33,False
11162,'Widget 11162',47.67,True
11163,'Widget 11163',50.0,False
11164,'Widget 11164',52.33,True
11165,'Widget 11165',54.67,False
11166,'Widget 11166',57.0,True
11167,'Widget 11167',59.33,False
11168,'Widget 11168',61.67,True
11169,'Widget 11169',64.0,False
11170,'Widget 11170',66.33,True
11171,'Widget 11171',68.67,False
11172,'Widget 11172',71.0,True
11173,'Widget 11173',73.33,False
11174,'Widget 11174',75.67,True
11175,'Widget 11175',78.0,False
11176,'Widget 11176',80.33,True
11177,'Widget 11177',82.67,False
11178,'Widget 11178',85.0,True
11179,'Widget 11179',87.33,False
11180,'Widget 11180',89.67,True
11181,'Widget 11181',92.0,False
11182,'Widget 11182',94.33,True
11183,'Widget 11183',96.67,False
11184,'Widget 11184',99.0,True
11185,'Widget 11185',101.33,False
11186,'Widget 11186',103.67,True
11187,'Widget 11187',106.0,False
11188,'Widget 11188',108.33,True
11189,'Widget 11189',110.67,False
11190,'Widget 11190',113.0,True
11191,'Widget 11191',115.33,False
11192,'Widget 11192',117.67,True
11193,'Widget 11193',120.0,False
11194,'Widget 11194',122.33,True
11195,'Widget 11195',124.67,False
11196,'Widget 11196',127.0,True
11197,'Widget 11197',129.33,False
11198,'Widget 11198',131.67,True
11199,'Widget 11199',134.0,False
11200,'Widget 11200',136.33,True
11201,'Widget 11201',138.67,False
11202,'Widget 11202',141.0,True
11203,'Widget 11203',143.33,False
11204,'Widget 11204',145.67,True
11205,'Widget 11205',148.0,False
11206,'Widget 11206',150.33,True
11207,'Widget 11207',152.67,False
11208,'Widget 11208',155.0,True
11209,'Widget 11209',157.33,False
11210,'Widget 11210',159.67,True
11211,'Widget 11211',162.0,False
11212,'Widget 11212',164.33,True
11213,'Widget 11213',166.67,False
11214,'Widget 11214',169.0,True
11215,'Widget 11215',4.67,False
11216,'Widget 11216',7.0,True
11217,'Widget 11217',9.33,False
11218,'Widget 11218',11.67,True
11219,'Widget 11219',14.0,False
11220,'Widget 11220',16.33,True
11221,'Widget 11221',18.67,False
11222,'Widget 11222',21.0,True
11223,'Widget 11223',23.33,False
11224,'Widget 11224',25.67,True
11225,'Widget 11225',28.0,False
11226,'Widget 11226',30.33,True
11227,'Widget 11227',32.67,False
11228,'Widget 11228',35.0,True
11229,'Widget 11229',37.33,False
11230,'Widget 11230',39.67,True
11231,'Widget 11231',42.0,False
11232,'Widget 11232',44.33,True
11233,'Widget 11233',46.67,False
11234,'Widget 11234',49.0,True
11235,'Widget 11235',51.33,False
11236,'Widget 11236',53.67,True
11237,'Widget 11237',56.0,False
11238,'Widget 11238',58.33,True
11239,'Widget 11239',60.67,False
11240,'Widget 11240',63.0,True
11241,'Widget 11241',65.33,False
11242,'Widget 11242',67.67,True
11243,'Widget 11243',70.0,False
11244,'Widget 11244',72.33,True
11245,'Widget 11245',74.67,False
11246,'Widget 11246',77.0,True
11247,'Widget 11247',79.33,False
11248,'Widget 11248',81.67,True
11249,'Widget 11249',84.0,False
11250,'Widget 11250',86.33,True
11251,'Widget 11251',88.67,False
11252,'Widget 11252',91.0,True
11253,'Widget 11253',93.33,False
11254,'Widget 11254',95.67,True
11255,'Widget 11255',98.0,False
11256,'Widget 11256',100.33,True
11257,'Widget 11257',102.67,False
11258,'Widget 11258',105.0,True
11259,'Widget 11259',107.33,False
11260,'Widget 11260',109.67,True
11261,'Widget 11261',112.0,False
11262,'Widget 11262',114.33,True
11263,'Widget 11263',116.67,False
11264,'Widget 11264',119.0,True
11265,'Widget 11265',121.33,False
11266,'Widget 11266',123.67,True
11267,'Widget 11267',126.0,False
11268,'Widget 11268',128.33,True
11269,'Widget 11269',130.67,False
11270,'Widget 11270',133.0,True
11271,'Widget 11271',135.33,False
11272,'Widget 11272',137.67,True
11273,'Widget 11273',140.0,False
11274,'Widget 11274',142.33,True
11275,'Widget 11275',144.67,False
11276,'Widget 11276',147.0,True
11277,'Widget 11277',149.33,False
11278,'Widget 11278',151.67,True
11279,'Widget 11279',154.0,False
11280,'Widget 11280',156.33,True
11281,'Widget 11281',158.67,False
11282,'Widget 11282',161.0,True
11283,'Widget 11283',163.33,False
11284,'Widget 11284',165.67,True
11285,'Widget 11285',168.0,False
11286,'Widget 11286',3.67,True
11287,'Widget 11287',6.0,False
11288,'Widget 11288',8.33,True
11289,'Widget 11289',10.67,False
11290,'Widget 11290',13.0,True
11291,'Widget 11291',15.33,False
11292,'Widget 11292',17.67,True
11293,'Widget 11293',20.0,False
11294,'Widget 11294',22.33,True
11295,'Widget 11295',24.67,False
11296,'Widget 11296',27.0,True
11297,'Widget 11297',29.33,False
11298,'Widget 11298',31.67,True
11299,'Widget 11299',34.0,False
11300,'Widget 11300',36.33,True
11301,'Widget 11301',38.67,False
11302,'Widget 11302',41.0,True
11303,'Widget 11303',43.33,False
11304,'Widget 11304',45.67,True
11305,'Widget 11305',48.0,False
11306,'Widget 11306',50.33,True
11307,'Widget 11307',52.67,False
11308,'Widget 11308',55.0,True
11309,'Widget 11309',57.33,False
11310,'Widget 11310',59.67,True
11311,'Widget 11311',62.0,False
11312,'Widget 11312',64.33,True
11313,'Widget 11313',66.67,False
11314,'Widget 11314',69.0,True
11315,'Widget 11315',71.33,False
11316,'Widget 11316',73.67,True
11317,'Widget 11317',76.0,False
11318,'Widget 11318',78.33,True
11319,'Widget 11319',80.67,False
11320,'Widget 11320',83.0,True
11321,'Widget 11321',85.33,False
11322,'Widget 11322',87.67,True
11323,'Widget 11323',90.0,False
11324,'Widget 11324',92.33,True
11325,'Widget 11325',94.67,False
11326,'Widget 11326',97.0,True
11327,'Widget 11327',99.33,False
11328,'Widget 11328',101.67,True
11329,'Widget 11329',104.0,False
11330,'Widget 11330',106.33,True
11331,'Widget 11331',108.67,False
11332,'Widget 11332',111.0,True
11333,'Widget 11333',113.33,False
11334,'Widget 11334',115.67,True
11335,'Widget 11335',118.0,False
11336,'Widget 11336',120.33,True
11337,'Widget 11337',122.67,False
11338,'Widget 11338',125.0,True
11339,'Widget 11339',127.33,False
11340,'Widget 11340',129.67,True
11341,'Widget 11341',132.0,False
11342,'Widget 11342',134.33,True
11343,'Widget 11343',136.67,False
11344,'Widget 11344',139.0,True
11345,'Widget 11345',141.33,False
11346,'Widget 11346',143.67,True
11347,'Widget 11347',146.0,False
11348,'Widget 11348',148.33,True
11349,'Widget 11349',150.67,False
11350,'Widget 11350',153.0,True
11351,'Widget 11351',155.33,False
11352,'Widget 11352',157.67,True
11353,'Widget 11353',160.0,False
11354,'Widget 11354',162.33,True
11355,'Widget 11355',164.67,False
11356,'Widget 11356',167.0,True
11357,'Widget 11357',169.33,False
11358,'Widget 11358',5.0,True
11359,'Widget 11359',7.33,False
11360,'Widget 11360',9.67,True
11361,'Widget 11361',12.0,False
11362,'Widget 11362',14.33,True
11363,'Widget 11363',16.67,False
11364,'Widget 11364',19.0,True
11365,'Widget 11365',21.33,False
11366,'Widget 11366',23.67,True
11367,'Widget 11367',26.0,False
11368,'Widget 11368',28.33,True
11369,'Widget 11369',30.67,False
11370,'Widget 11370',33.0,True
11371,'Widget 11371',35.33,False
11372,'Widget 11372',37.67,True
11373,'Widget 11373',40.0,False
11374,'Widget 11374',42.33,True
11375,'Widget 11375',44.67,False
11376,'Widget 11376',47.0,True
11377,'Widget 11377',49.33,False
11378,'Widget 11378',51.67,True
11379,'Widget 11379',54.0,False
11380,'Widget 11380',56.33,True
11381,'Widget 11381',58.67,False
11382,'Widget 11382',61.0,True
11383,'Widget 11383',63.33,False
11384,'Widget 11384',65.67,True
11385,'Widget 11385',68.0,False
11386,'Widget 11386',70.33,True
11387,'Widget 11387',72.67,False
11388,'Widget 11388',75.0,True
11389,'Widget 11389',77.33,False
11390,'Widget 11390',79.67,True
11391,'Widget 11391',82.0,False
11392,'Widget 11392',84.33,True
11393,'Widget 11393',86.67,False
11394,'Widget 11394',89.0,True
11395,'Widget 11395',91.33,False
11396,'Widget 11396',93.67,True
11397,'Widget 11397',96.0,False
11398,'Widget 11398',98.33,True
11399,'Widget 11399',100.67,False
11400,'Widget 11400',103.0,True
11401,'Widget 11401',105.33,False
11402,'Widget 11402',107.67,True
11403,'Widget 11403',110.0,False
11404,'Widget 11404',112.33,True
11405,'Widget 11405',114.67,False
11406,'Widget 11406',117.0,True
11407,'Widget 11407',119.33,False
11408,'Widget 11408',121.67,True
11409,'Widget 11409',124.0,False
11410,'Widget 11410',126.33,True
11411,'Widget 11411',128.67,False
11412,'Widget 11412',131.0,True
11413,'Widget 11413',133.33,False
11414,'Widget 11414',135.67,True
11415,'Widget 11415',138.0,False
11416,'Widget 11416',140.33,True
11417,'Widget 11417',142.67,False
11418,'Widget 11418',145.0,True
11419,'Widget 11419',147.33,False
11420,'Widget 11420',149.67,True
11421,'Widget 11421',152.0,False
11422,'Widget 11422',154.33,True
11423,'Widget 11423',156.67,False
11424,'Widget 11424',159.0,True
11425,'Widget 11425',161.33,False
11426,'Widget 11426',163.67,True
11427,'Widget 11427',166.0,False
11428,'Widget 11428',168.33,True
11429,'Widget 11429',4.0,False
11430,'Widget 11430',6.33,True
11431,'Widget 11431',8.67,False
11432,'Widget 11432',11.0,True
11433,'Widget 11433',13.33,False
11434,'Widget 11434',15.67,True
11435,'Widget 11435',18.0,False
11436,'Widget 11436',20.33,True
11437,'Widget 11437',22.67,False
11438,'Widget 11438',25.0,True
11439,'Widget 11439',27.33,False
11440,'Widget 11440',29.67,True
11441,'Widget 11441',32.0,False
11442,'Widget 11442',34.33,True
11443,'Widget 11443',36.67,False
11444,'Widget 11444',39.0,True
11445,'Widget 11445',41.33,False
11446,'Widget 11446',43.67,True
11447,'Widget 11447',46.0,False
11448,'Widget 11448',48.33,True
11449,'Widget 11449',50.67,False
11450,'Widget 11450',53.0,True
11451,'Widget 11451',55.33,False
11452,'Widget 11452',57.67,True
11453,'Widget 11453',60.0,False
11454,'Widget 11454',62.33,True
11455,'Widget 11455',64.67,False
11456,'Widget 11456',67.0,True
11457,'Widget 11457',69.33,False
11458,'Widget 11458',71.67,True
11459,'Widget 11459',74.0,False
11460,'Widget 11460',76.33,True
11461,'Widget 11461',78.67,False
11462,'Widget 11462',81.0,True
11463,'Widget 11463',83.33,False
11464,'Widget 11464',85.67,True
11465,'Widget 11465',88.0,False
11466,'Widget 11466',90.33,True
11467,'Widget 11467',92.67,False
11468,'Widget 11468',95.0,True
11469,'Widget 11469',97.33,False
11470,'Widget 11470',99.67,True
11471,'Widget 11471',102.0,False
11472,'Widget 11472',104.33,True
11473,'Widget 11473',106.67,False
11474,'Widget 11474',109.0,True
11475,'Widget 11475',111.33,False
11476,'Widget 11476',113.67,True
11477,'Widget 11477',116.0,False
11478,'Widget 11478',118.33,True
11479,'Widget 11479',120.67,False
11480,'Widget 11480',123.0,True
11481,'Widget 11481',125.33,False
11482,'Widget 11482',127.67,True
11483,'Widget 11483',130.0,False
11484,'Widget 11484',132.33,True
11485,'Widget 11485',134.67,False
11486,'Widget 11486',137.0,True
11487,'Widget 11487',139.33,False
11488,'Widget 11488',141.67,True
11489,'Widget 11489',144.0,False
11490,'Widget 11490',146.33,True
11491,'Widget 11491',148.67,False
11492,'Widget 11492',151.0,True
11493,'Widget 11493',153.33,False
11494,'Widget 11494',155.67,True
11495,'Widget 11495',158.0,False
11496,'Widget 11496',160.33,True
11497,'Widget 11497',162.67,False
11498,'Widget 11498',165.0,True
11499,'Widget 11499',167.33,False
11500,'Widget 11500',3.0,True
11501,'Widget 11501',5.33,False
11502,'Widget 11502',7.67,True
11503,'Widget 11503',10.0,False
11504,'Widget 11504',12.33,True
11505,'Widget 11505',14.67,False
11506,'Widget 11506',17.0,True
11507,'Widget 11507',19.33,False
11508,'Widget 11508',21.67,True
11509,'Widget 11509',24.0,False
11510,'Widget 11510',26.33,True
11511,'Widget 11511',28.67,False
11512,'Widget 11512',31.0,True
11513,'Widget 11513',33.33,False
11514,'Widget 11514',35.67,True
11515,'Widget 11515',38.0,False
11516,'Widget 11516',40.33,True
11517,'Widget 11517',42.67,False
11518,'Widget 11518',45.0,True
11519,'Widget 11519',47.33,False
11520,'Widget 11520',49.67,True
11521,'Widget 11521',52.0,False
11522,'Widget 11522',54.33,True
11523,'Widget 11523',56.67,False
11524,'Widget 11524',59.0,True
11525,'Widget 11525',61.33,False
11526,'Widget 11526',63.67,True
11527,'Widget 11527',66.0,False
11528,'Widget 11528',68.33,True
11529,'Widget 11529',70.67,False
11530,'Widget 11530',73.0,True
11531,'Widget 11531',75.33,False
11532,'Widget 11532',77.67,True
11533,'Widget 11533',80.0,False
11534,'Widget 11534',82.33,True
11535,'Widget 11535',84.67,False
11536,'Widget 11536',87.0,True
11537,'Widget 11537',89.33,False
11538,'Widget 11538',91.67,True
11539,'Widget 11539',94.0,False
11540,'Widget 11540',96.33,True
11541,'Widget 11541',98.67,False
11542,'Widget 11542',101.0,True
11543,'Widget 11543',103.33,False
11544,'Widget 11544',105.67,True
11545,'Widget 11545',108.0,False
11546,'Widget 11546',110.33,True
11547,'Widget 11547',112.67,False
11548,'Widget 11548',115.0,True
11549,'Widget 11549',117.33,False
11550,'Widget 11550',119.67,True
11551,'Widget 11551',122.0,False
11552,'Widget 11552',124.33,True
11553,'Widget 11553',126.67,False
11554,'Widget 11554',129.0,True
11555,'Widget 11555',131.33,False
11556,'Widget 11556',133.67,True
11557,'Widget 11557',136.0,False
11558,'Widget 11558',138.33,True
11559,'Widget 11559',140.67,False
11560,'Widget 11560',143.0,True
11561,'Widget 11561',145.33,False
11562,'Widget 11562',147.67,True
11563,'Widget 11563',150.0,False
11564,'Widget 11564',152.33,True
11565,'Widget 11565',154.67,False
11566,'Widget 11566',157.0,True
11567,'Widget 11567',159.33,False
11568,'Widget 11568',161.67,True
11569,'Widget 11569',164.0,False
11570,'Widget 11570',166.33,True
11571,'Widget 11571',168.67,False
11572,'Widget 11572',4.33,True
11573,'Widget 11573',6.67,False
11574,'Widget 11574',9.0,True
11575,'Widget 11575',11.33,False
11576,'Widget 11576',13.67,True
11577,'Widget 11577',16.0,False
11578,'Widget 11578',18.33,True
11579,'Widget 11579',20.67,False
11580,'Widget 11580',23.0,True
11581,'Widget 11581',25.33,False
11582,'Widget 11582',27.67,True
11583,'Widget 11583',30.0,False
11584,'Widget 11584',32.33,True
11585,'Widget 11585',34.67,False
11586,'Widget 11586',37.0,True
11587,'Widget 11587',39.33,False
11588,'Widget 11588',41.67,True
11589,'Widget 11589',44.0,False
11590,'Widget 11590',46.33,True
11591,'Widget 11591',48.67,False
11592,'Widget 11592',51.0,True
11593,'Widget 11593',53.33,False
11594,'Widget 11594',55.67,True
11595,'Widget 11595',58.0,False
11596,'Widget 11596',60.33,True
11597,'Widget 11597',62.67,False
11598,'Widget 11598',65.0,True
11599,'Widget 11599',67.33,False
11600,'Widget 11600',69.67,True
11601,'Widget 11601',72.0,False
11602,'Widget 11602',74.33,True
11603,'Widget 11603',76.67,False
11604,'Widget 11604',79.0,True
11605,'Widget 11605',81.33,False
11606,'Widget 11606',83.67,True
11607,'Widget 11607',86.0,False
11608,'Widget 11608',88.33,True
11609,'Widget 11609',90.67,False
11610,'Widget 11610',93.0,True
11611,'Widget 11611',95.33,False
11612,'Widget 11612',97.67,True
11613,'Widget 11613',100.0,False
11614,'Widget 11614',102.33,True
11615,'Widget 11615',104.67,False
11616,'Widget 11616',107.0,True
11617,'Widget 11617',109.33,False
11618,'Widget 11618',111.67,True
11619,'Widget 11619',114.0,False
11620,'Widget 11620',116.33,True
11621,'Widget 11621',118.67,False
11622,'Widget 11622',121.0,True
11623,'Widget 11623',123.33,False
11624,'Widget 11624',125.67,True
11625,'Widget 11625',128.0,False
11626,'Widget 11626',130.33,True
11627,'Widget 11627',132.67,False
11628,'Widget 11628',135.0,True
11629,'Widget 11629',137.33,False
11630,'Widget 11630',139.67,True
11631,'Widget 11631',142.0,False
11632,'Widget 11632',144.33,True
11633,'Widget 11633',146.67,False
11634,'Widget 11634',149.0,True
11635,'Widget 11635',151.33,False
11636,'Widget 11636',153.67,True
11637,'Widget 11637',156.0,False
11638,'Widget 11638',158.33,True
11639,'Widget 11639',160.67,False
11640,'Widget 11640',163.0,True
11641,'Widget 11641',165.33,False
11642,'Widget 11642',167.67,True
11643,'Widget 11643',3.33,False
11644,'Widget 11644',5.67,True
11645,'Widget 11645',8.0,False
11646,'Widget 11646',10.33,True
11647,'Widget 11647',12.67,False
11648,'Widget 11648',15.0,True
11649,'Widget 11649',17.33,False
11650,'Widget 11650',19.67,True
11651,'Widget 11651',22.0,False
11652,'Widget 11652',24.33,True
11653,'Widget 11653',26.67,False
11654,'Widget 11654',29.0,True
11655,'Widget 11655',31.33,False
11656,'Widget 11656',33.67,True
11657,'Widget 11657',36.0,False
11658,'Widget 11658',38.33,True
11659,'Widget 11659',40.67,False
11660,'Widget 11660',43.0,True
11661,'Widget 11661',45.33,False
11662,'Widget 11662',47.67,True
11663,'Widget 11663',50.0,False
11664,'Widget 11664',52.33,True
11665,'Widget 11665',54.67,False
11666,'Widget 11666',57.0,True
11667,'Widget 11667',59.33,False
11668,'Widget 11668',61.67,True
11669,'Widget 11669',64.0,False
11670,'Widget 11670',66.33,True
11671,'Widget 11671',68.67,False
11672,'Widget 11672',71.0,True
11673,'Widget 11673',73.33,False
11674,'Widget 11674',75.67,True
11675,'Widget 11675',78.0,False
11676,'Widget 11676',80.33,True
11677,'Widget 11677',82.67,False
11678,'Widget 11678',85.0,True
11679,'Widget 11679',87.33,False
11680,'Widget 11680',89.67,True
11681,'Widget 11681',92.0,False
11682,'Widget 11682',94.33,True
11683,'Widget 11683',96.67,False
11684,'Widget 11684',99.0,True
11685,'Widget 11685',101.33,False
11686,'Widget 11686',103.67,True
11687,'Widget 11687',106.0,False
11688,'Widget 11688',108.33,True
11689,'Widget 11689',110.67,False
11690,'Widget 11690',113.0,True
11691,'Widget 11691',115.33,False
11692,'Widget 11692',117.67,True
11693,'Widget 11693',120.0,False
11694,'Widget 11694',122.33,True
11695,'Widget 11695',124.67,False
11696,'Widget 11696',127.0,True
11697,'Widget 11697',129.33,False
11698,'Widget 11698',131.67,True
11699,'Widget 11699',134.0,False
11700,'Widget 11700',136.33,True
11701,'Widget 11701',138.67,False
11702,'Widget 11702',141.0,True
11703,'Widget 11703',143.33,False
11704,'Widget 11704',145.67,True
11705,'Widget 11705',148.0,False
11706,'Widget 11706',150.33,True
11707,'Widget 11707',152.67,False
11708,'Widget 11708',155.0,True
11709,'Widget 11709',157.33,False
11710,'Widget 11710',159.67,True
11711,'Widget 11711',162.0,False
11712,'Widget 11712',164.33,True
11713,'Widget 11713',166.67,False
11714,'Widget 11714',169.0,True
11715,'Widget 11715',4.67,False
11716,'Widget 11716',7.0,True
11717,'Widget 11717',9.33,False
11718,'Widget 11718',11.67,True
11719,'Widget 11719',14.0,False
11720,'Widget 11720',16.33,True
11721,'Widget 11721',18.67,False
11722,'Widget 11722',21.0,True
11723,'Widget 11723',23.33,False
11724,'Widget 11724',25.67,True
11725,'Widget 11725',28.0,False
11726,'Widget 11726',30.33,True
11727,'Widget 11727',32.67,False
11728,'Widget 11728',35.0,True
11729,'Widget 11729',37.33,False
11730,'Widget 11730',39.67,True
11731,'Widget 11731',42.0,False
11732,'Widget 11732',44.33,True
11733,'Widget 11733',46.67,False
11734,'Widget 11734',49.0,True
11735,'Widget 11735',51.33,False
11736,'Widget 11736',53.67,True
11737,'Widget 11737',56.0,False
11738,'Widget 11738',58.33,True
11739,'Widget 11739',60.67,False
11740,'Widget 11740',63.0,True
11741,'Widget 11741',65.33,False
11742,'Widget 11742',67.67,True
11743,'Widget 11743',70.0,False
11744,'Widget 11744',72.33,True
11745,'Widget 11745',74.67,False
11746,'Widget 11746',77.0,True
11747,'Widget 11747',79.33,False
11748,'Widget 11748',81.67,True
11749,'Widget 11749',84.0,False
11750,'Widget 11750',86.33,True
11751,'Widget 11751',88.67,False
11752,'Widget 11752',91.0,True
11753,'Widget 11753',93.33,False
11754,'Widget 11754',95.67,True
11755,'Widget 11755',98.0,False
11756,'Widget 11756',100.33,True
11757,'Widget 11757',102.67,False
11758,'Widget 11758',105.0,True
11759,'Widget 11759',107.33,False
11760,'Widget 11760',109.67,True
11761,'Widget 11761',112.0,False
11762,'Widget 11762',114.33,True
11763,'Widget 11763',116.67,False
11764,'Widget 11764',119.0,True
11765,'Widget 11765',121.33,False
11766,'Widget 11766',123.67,True
11767,'Widget 11767',126.0,False
11768,'Widget 11768',128.33,True
11769,'Widget 11769',130.67,False
11770,'Widget 11770',133.0,True
11771,'Widget 11771',135.33,False
11772,'Widget 11772',137.67,True
11773,'Widget 11773',140.0,False
11774,'Widget 11774',142.33,True
11775,'Widget 11775',144.67,False
11776,'Widget 11776',147.0,True
11777,'Widget 11777',149.33,False
11778,'Widget 11778',151.67,True
11779,'Widget 11779',154.0,False
11780,'Widget 11780',156.33,True
11781,'Widget 11781',158.67,False
11782,'Widget 11782',161.0,True
11783,'Widget 11783',163.33,False
11784,'Widget 11784',165.67,True
11785,'Widget 11785',168.0,False
11786,'Widget 11786',3.67,True
11787,'Widget 11787',6.0,False
11788,'Widget 11788',8.33,True
11789,'Widget 11789',10.67,False
11790,'Widget 11790',13.0,True
11791,'Widget 11791',15.33,False
11792,'Widget 11792',17.67,True
11793,'Widget 11793',20.0,False
11794,'Widget 11794',22.33,True
11795,'Widget 11795',24.67,False
11796,'Widget 11796',27.0,True
11797,'Widget 11797',29.33,False
11798,'Widget 11798',31.67,True
11799,'Widget 11799',34.0,False
11800,'Widget 11800',36.33,True
11801,'Widget 11801',38.67,False
11802,'Widget 11802',41.0,True
11803,'Widget 11803',43.33,False
11804,'Widget 11804',45.67,True
11805,'Widget 11805',48.0,False
11806,'Widget 11806',50.33,True
11807,'Widget 11807',52.67,False
11808,'Widget 11808',55.0,True
11809,'Widget 11809',57.33,False
11810,'Widget 11810',59.67,True
11811,'Widget 11811',62.0,False
11812,'Widget 11812',64.33,True
11813,'Widget 11813',66.67,False
11814,'Widget 11814',69.0,True
11815,'Widget 11815',71.33,False
11816,'Widget 11816',73.67,True
11817,'Widget 11817',76.0,False
11818,'Widget 11818',78.33,True
11819,'Widget 11819',80.67,False
11820,'Widget 11820',83.0,True
11821,'Widget 11821',85.33,False
11822,'Widget 11822',87.67,True
11823,'Widget 11823',90.0,False
11824,'Widget 11824',92.33,True
11825,'Widget 11825',94.67,False
11826,'Widget 11826',97.0,True
11827,'Widget 11827',99.33,False
11828,'Widget 11828',101.67,True
11829,'Widget 11829',104.0,False
11830,'Widget 11830',106.33,True
11831,'Widget 11831',108.67,False
11832,'Widget 11832',111.0,True
11833,'Widget 11833',113.33,False
11834,'Widget 11834',115.67,True
11835,'Widget 11835',118.0,False
11836,'Widget 11836',120.33,True
11837,'Widget 11837',122.67,False
11838,'Widget 11838',125.0,True
11839,'Widget 11839',127.33,False
11840,'Widget 11840',129.67,True
11841,'Widget 11841',132.0,False
11842,'Widget 11842',134.33,True
11843,'Widget 11843',136.67,False
11844,'Widget 11844',139.0,True
11845,'Widget 11845',141.33,False
11846,'Widget 11846',143.67,True
11847,'Widget 11847',146.0,False
11848,'Widget 11848',148.33,True
11849,'Widget 11849',150.67,False
11850,'Widget 11850',153.0,True
11851,'Widget 11851',155.33,False
11852,'Widget 11852',157.67,True
11853,'Widget 11853',160.0,False
11854,'Widget 11854',162.33,True
11855,'Widget 11855',164.67,False
11856,'Widget 11856',167.0,True
11857,'Widget 11857',169.33,False
11858,'Widget 11858',5.0,True
11859,'Widget 11859',7.33,False
11860,'Widget 11860',9.67,True
11861,'Widget 11861',12.0,False
11862,'Widget 11862',14.33,True
11863,'Widget 11863',16.67,False
11864,'Widget 11864',19.0,True
11865,'Widget 11865',21.33,False
11866,'Widget 11866',23.67,True
11867,'Widget 11867',26.0,False
11868,'Widget 11868',28.33,True
11869,'Widget 11869',30.67,False
11870,'Widget 11870',33.0,True
11871,'Widget 11871',35.33,False
11872,'Widget 11872',37.67,True
11873,'Widget 11873',40.0,False
11874,'Widget 11874',42.33,True
11875,'Widget 11875',44.67,False
11876,'Widget 11876',47.0,True
11877,'Widget 11877',49.33,False
11878,'Widget 11878',51.67,True
11879,'Widget 11879',54.0,False
11880,'Widget 11880',56.33,True
11881,'Widget 11881',58.67,False
11882,'Widget 11882',61.0,True
11883,'Widget 11883',63.33,False
11884,'Widget 11884',65.67,True
11885,'Widget 11885',68.0,False
11886,'Widget 11886',70.33,True
11887,'Widget 11887',72.67,False
11888,'Widget 11888',75.0,True
11889,'Widget 11889',77.33,False
11890,'Widget 11890',79.67,True
11891,'Widget 11891',82.0,False
11892,'Widget 11892',84.33,True
11893,'Widget 11893',86.67,False
11894,'Widget 11894',89.0,True
11895,'Widget 11895',91.33,False
11896,'Widget 11896',93.67,True
11897,'Widget 11897',96.0,False
11898,'Widget 11898',98.33,True
11899,'Widget 11899',100.67,False
11900,'Widget 11900',103.0,True
11901,'Widget 11901',105.33,False
11902,'Widget 11902',107.67,True
11903,'Widget 11903',110.0,False
11904,'Widget 11904',112.33,True
11905,'Widget 11905',114.67,False
11906,'Widget 11906',117.0,True
11907,'Widget 11907',119.33,False
11908,'Widget 11908',121.67,True
11909,'Widget 11909',124.0,False
11910,'Widget 11910',126.33,True
11911,'Widget 11911',128.67,False
11912,'Widget 11912',131.0,True
11913,'Widget 11913',133.33,False
11914,'Widget 11914',135.67,True
11915,'Widget 11915',138.0,False
11916,'Widget 11916',140.33,True
11917,'Widget 11917',142.67,False
11918,'Widget 11918',145.0,True
11919,'Widget 11919',147.33,False
11920,'Widget 11920',149.67,True
11921,'Widget 11921',152.0,False
11922,'Widget 11922',154.33,True
11923,'Widget 11923',156.67,False
11924,'Widget 11924',159.0,True
11925,'Widget 11925',161.33,False
11926,'Widget 11926',163.67,True
11927,'Widget 11927',166.0,False
11928,'Widget 11928',168.33,True
11929,'Widget 11929',4.0,False
11930,'Widget 11930',6.33,True
11931,'Widget 11931',8.67,False
11932,'Widget 11932',11.0,True
11933,'Widget 11933',13.33,False
11934,'Widget 11934',15.67,True
11935,'Widget 11935',18.0,False
11936,'Widget 11936',20.33,True
11937,'Widget 11937',22.67,False
11938,'Widget 11938',25.0,True
11939,'Widget 11939',27.33,False
11940,'Widget 11940',29.67,True
11941,'Widget 11941',32.0,False
11942,'Widget 11942',34.33,True
11943,'Widget 11943',36.67,False
11944,'Widget 11944',39.0,True
11945,'Widget 11945',41.33,False
11946,'Widget 11946',43.67,True
11947,'Widget 11947',46.0,False
11948,'Widget 11948',48.33,True
11949,'Widget 11949',50.67,False
11950,'Widget 11950',53.0,True
11951,'Widget 11951',55.33,False
11952,'Widget 11952',57.67,True
11953,'Widget 11953',60.0,False
11954,'Widget 11954',62.33,True
11955,'Widget 11955',64.67,False
11956,'Widget 11956',67.0,True
11957,'Widget 11957',69.33,False
11958,'Widget 11958',71.67,True
11959,'Widget 11959',74.0,False
11960,'Widget 11960',76.33,True
11961,'Widget 11961',78.67,False
11962,'Widget 11962',81.0,True
11963,'Widget 11963',83.33,False
11964,'Widget 11964',85.67,True
11965,'Widget 11965',88.0,False
11966,'Widget 11966',90.33,True
11967,'Widget 11967',92.67,False
11968,'Widget 11968',95.0,True
11969,'Widget 11969',97.33,False
11970,'Widget 11970',99.67,True
11971,'Widget 11971',102.0,False
11972,'Widget 11972',104.33,True
11973,'Widget 11973',106.67,False
11974,'Widget 11974',109.0,True
11975,'Widget 11975',111.33,False
11976,'Widget 11976',113.67,True
11977,'Widget 11977',116.0,False
11978,'Widget 11978',118.33,True
11979,'Widget 11979',120.67,False
11980,'Widget 11980',123.0,True
11981,'Widget 11981',125.33,False
11982,'Widget 11982',127.67,True
11983,'Widget 11983',130.0,False
11984,'Widget 11984',132.33,True
11985,'Widget 11985',134.67,False
11986,'Widget 11986',137.0,True
11987,'Widget 11987',139.33,False
11988,'Widget 11988',141.67,True
11989,'Widget 11989',144.0,False
11990,'Widget 11990',146.33,True
11991,'Widget 11991',148.67,False
11992,'Widget 11992',151.0,True
11993,'Widget 11993',153.33,False
11994,'Widget 11994',155.67,True
11995,'Widget 11995',158.0,False
11996,'Widget 11996',160.33,True
11997,'Widget 11997',162.67,False
11998,'Widget 11998',165.0,True
11999,'Widget 11999',167.33,False
12000,'Widget 12000',3.0,True
12001,'Widget 12001',5.33,False
12002,'Widget 12002',7.67,True
12003,'Widget 12003',10.0,False
12004,'Widget 12004',12.33,True
12005,'Widget 12005',14.67,False
12006,'Widget 12006',17.0,True
12007,'Widget 12007',19.33,False
12008,'Widget 12008',21.67,True
12009,'Widget 12009',24.0,False
12010,'Widget 12010',26.33,True
12011,'Widget 12011',28.67,False
12012,'Widget 12012',31.0,True
12013,'Widget 12013',33.33,False
12014,'Widget 12014',35.67,True
12015,'Widget 12015',38.0,False
12016,'Widget 12016',40.33,True
12017,'Widget 12017',42.67,False
12018,'Widget 12018',45.0,True
12019,'Widget 12019',47.33,False
12020,'Widget 12020',49.67,True
12021,'Widget 12021',52.0,False
12022,'Widget 12022',54.33,True
12023,'Widget 12023',56.67,False
12024,'Widget 12024',59.0,True
12025,'Widget 12025',61.33,False
12026,'Widget 12026',63.67,True
12027,'Widget 12027',66.0,False
12028,'Widget 12028',68.33,True
12029,'Widget 12029',70.67,False
12030,'Widget 12030',73.0,True
12031,'Widget 12031',75.33,False
12032,'Widget 12032',77.67,True
12033,'Widget 12033',80.0,False
12034,'Widget 12034',82.33,True
12035,'Widget 12035',84.67,False
12036,'Widget 12036',87.0,True
12037,'Widget 12037',89.33,False
12038,'Widget 12038',91.67,True
12039,'Widget 12039',94.0,False
12040,'Widget 12040',96.33,True
12041,'Widget 12041',98.67,False
12042,'Widget 12042',101.0,True
12043,'Widget 12043',103.33,False
12044,'Widget 12044',105.67,True
12045,'Widget 12045',108.0,False
12046,'Widget 12046',110.33,True
12047,'Widget 12047',112.67,False
12048,'Widget 12048',115.0,True
12049,'Widget 12049',117.33,False
12050,'Widget 12050',119.67,True
12051,'Widget 12051',122.0,False
12052,'Widget 12052',124.33,True
12053,'Widget 12053',126.67,False
12054,'Widget 12054',129.0,True
12055,'Widget 12055',131.33,False
12056,'Widget 12056',133.67,True
12057,'Widget 12057',136.0,False
12058,'Widget 12058',138.33,True
12059,'Widget 12059',140.67,False
12060,'Widget 12060',143.0,True
12061,'Widget 12061',145.33,False
12062,'Widget 12062',147.67,True
12063,'Widget 12063',150.0,False
12064,'Widget 12064',152.33,True
12065,'Widget 12065',154.67,False
12066,'Widget 12066',157.0,True
12067,'Widget 12067',159.33,False
12068,'Widget 12068',161.67,True
12069,'Widget 12069',164.0,False
12070,'Widget 12070',166.33,True
12071,'Widget 12071',168.67,False
12072,'Widget 12072',4.33,True
12073,'Widget 12073',6.67,False
12074,'Widget 12074',9.0,True
12075,'Widget 12075',11.33,False
12076,'Widget 12076',13.67,True
12077,'Widget 12077',16.0,False
12078,'Widget 12078',18.33,True
12079,'Widget 12079',20.67,False
12080,'Widget 12080',23.0,True
12081,'Widget 12081',25.33,False
12082,'Widget 12082',27.67,True
12083,'Widget 12083',30.0,False
12084,'Widget 12084',32.33,True
12085,'Widget 12085',34.67,False
12086,'Widget 12086',37.0,True
12087,'Widget 12087',39.33,False
12088,'Widget 12088',41.67,True
12089,'Widget 12089',44.0,False
12090,'Widget 12090',46.33,True
12091,'Widget 12091',48.67,False
12092,'Widget 12092',51.0,True
12093,'Widget 12093',53.33,False
12094,'Widget 12094',55.67,True
12095,'Widget 12095',58.0,False
12096,'Widget 12096',60.33,True
12097,'Widget 12097',62.67,False
12098,'Widget 12098',65.0,True
12099,'Widget 12099',67.33,False
12100,'Widget 12100',69.67,True
12101,'Widget 12101',72.0,False
12102,'Widget 12102',74.33,True
12103,'Widget 12103',76.67,False
12104,'Widget 12104',79.0,True
12105,'Widget 12105',81.33,False
12106,'Widget 12106',83.67,True
12107,'Widget 12107',86.0,False
12108,'Widget 12108',88.33,True
12109,'Widget 12109',90.67,False
12110,'Widget 12110',93.0,True
12111,'Widget 12111',95.33,False
12112,'Widget 12112',97.67,True
12113,'Widget 12113',100.0,False
12114,'Widget 12114',102.33,True
12115,'Widget 12115',104.67,False
12116,'Widget 12116',107.0,True
12117,'Widget 12117',109.33,False
12118,'Widget 12118',111.67,True
12119,'Widget 12119',114.0,False
12120,'Widget 12120',116.33,True
12121,'Widget 12121',118.67,False
12122,'Widget 12122',121.0,True
12123,'Widget 12123',123.33,False
12124,'Widget 12124',125.67,True
12125,'Widget 12125',128.0,False
12126,'Widget 12126',130.33,True
12127,'Widget 12127',132.67,False
12128,'Widget 12128',135.0,True
12129,'Widget 12129',137.33,False
12130,'Widget 12130',139.67,True
12131,'Widget 12131',142.0,False
12132,'Widget 12132',144.33,True
12133,'Widget 12133',146.67,False
12134,'Widget 12134',149.0,True
12135,'Widget 12135',151.33,False
12136,'Widget 12136',153.67,True
12137,'Widget 12137',156.0,False
12138,'Widget 12138',158.33,True
12139,'Widget 12139',160.67,False
12140,'Widget 12140',163.0,True
12141,'Widget 12141',165.33,False
12142,'Widget 12142',167.67,True
12143,'Widget 12143',3.33,False
12144,'Widget 12144',5.67,True
12145,'Widget 12145',8.0,False
12146,'Widget 12146',10.33,True
12147,'Widget 12147',12.67,False
12148,'Widget 12148',15.0,True
12149,'Widget 12149',17.33,False
12150,'Widget 12150',19.67,True
12151,'Widget 12151',22.0,False
12152,'Widget 12152',24.33,True
12153,'Widget 12153',26.67,False
12154,'Widget 12154',29.0,True
12155,'Widget 12155',31.33,False
12156,'Widget 12156',33.67,True
12157,'Widget 12157',36.0,False
12158,'Widget 12158',38.33,True
12159,'Widget 12159',40.67,False
12160,'Widget 12160',43.0,True
12161,'Widget 12161',45.33,False
12162,'Widget 12162',47.67,True
12163,'Widget 12163',50.0,False
12164,'Widget 12164',52.33,True
12165,'Widget 12165',54.67,False
12166,'Widget 12166',57.0,True
12167,'Widget 12167',59.33,False
12168,'Widget 12168',61.67,True
12169,'Widget 12169',64.0,False
12170,'Widget 12170',66.33,True
12171,'Widget 12171',68.67,False
12172,'Widget 12172',71.0,True
12173,'Widget 12173',73.33,False
12174,'Widget 12174',75.67,True
12175,'Widget 12175',78.0,False
12176,'Widget 12176',80.33,True
12177,'Widget 12177',82.67,False
12178,'Widget 12178',85.0,True
12179,'Widget 12179',87.33,False
12180,'Widget 12180',89.67,True
12181,'Widget 12181',92.0,False
12182,'Widget 12182',94.33,True
12183,'Widget 12183',96.67,False
12184,'Widget 12184',99.0,True
12185,'Widget 12185',101.33,False
12186,'Widget 12186',103.67,True
12187,'Widget 12187',106.0,False
12188,'Widget 12188',108.33,True
12189,'Widget 12189',110.67,False
12190,'Widget 12190',113.0,True
12191,'Widget 12191',115.33,False
12192,'Widget 12192',117.67,True
12193,'Widget 12193',120.0,False
12194,'Widget 12194',122.33,True
12195,'Widget 12195',124.67,False
12196,'Widget 12196',127.0,True
12197,'Widget 12197',129.33,False
12198,'Widget 12198',131.67,True
12199,'Widget 12199',134.0,False
12200,'Widget 12200',136.33,True
12201,'Widget 12201',138.67,False
12202,'Widget 12202',141.0,True
12203,'Widget 12203',143.33,False
12204,'Widget 12204',145.67,True
12205,'Widget 12205',148.0,False
12206,'Widget 12206',150.33,True
12207,'Widget 12207',152.67,False
12208,'Widget 12208',155.0,True
12209,'Widget 12209',157.33,False
12210,'Widget 12210',159.67,True
12211,'Widget 12211',162.0,False
12212,'Widget 12212',164.33,True
12213,'Widget 12213',166.67,False
12214,'Widget 12214',169.0,True
12215,'Widget 12215',4.67,False
12216,'Widget 12216',7.0,True
12217,'Widget 12217',9.33,False
12218,'Widget 12218',11.67,True
12219,'Widget 12219',14.0,False
12220,'Widget 12220',16.33,True
12221,'Widget 12221',18.67,False
12222,'Widget 12222',21.0,True
12223,'Widget 12223',23.33,False
12224,'Widget 12224',25.67,True
12225,'Widget 12225',28.0,False
12226,'Widget 12226',30.33,True
12227,'Widget 12227',32.67,False
12228,'Widget 12228',35.0,True
12229,'Widget 12229',37.33,False
12230,'Widget 12230',39.67,True
12231,'Widget 12231',42.0,False
12232,'Widget 12232',44.33,True
12233,'Widget 12233',46.67,False
12234,'Widget 12234',49.0,True
12235,'Widget 12235',51.33,False
12236,'Widget 12236',53.67,True
12237,'Widget 12237',56.0,False
12238,'Widget 12238',58.33,True
12239,'Widget 12239',60.67,False
12240,'Widget 12240',63.0,True
12241,'Widget 12241',65.33,False
12242,'Widget 12242',67.67,True
12243,'Widget 12243',70.0,False
12244,'Widget 12244',72.33,True
12245,'Widget 12245',74.67,False
12246,'Widget 12246',77.0,True
12247,'Widget 12247',79.33,False
12248,'Widget 12248',81.67,True
12249,'Widget 12249',84.0,False
12250,'Widget 12250',86.33,True
12251,'Widget 12251',88.67,False
12252,'Widget 12252',91.0,True
12253,'Widget 12253',93.33,False
12254,'Widget 12254',95.67,True
12255,'Widget 12255',98.0,False
12256,'Widget 12256',100.33,True
12257,'Widget 12257',102.67,False
12258,'Widget 12258',105.0,True
12259,'Widget 12259',107.33,False
12260,'Widget 12260',109.67,True
12261,'Widget 12261',112.0,False
12262,'Widget 12262',114.33,True
12263,'Widget 12263',116.67,False
12264,'Widget 12264',119.0,True
12265,'Widget 12265',121.33,False
12266,'Widget 12266',123.67,True
12267,'Widget 12267',126.0,False
12268,'Widget 12268',128.33,True
12269,'Widget 12269',130.67,False
12270,'Widget 12270',133.0,True
12271,'Widget 12271',135.33,False
12272,'Widget 12272',137.67,True
12273,'Widget 12273',140.0,False
12274,'Widget 12274',142.33,True
12275,'Widget 12275',144.67,False
12276,'Widget 12276',147.0,True
12277,'Widget 12277',149.33,False
12278,'Widget 12278',151.67,True
12279,'Widget 12279',154.0,False
12280,'Widget 12280',156.33,True
12281,'Widget 12281',158.67,False
12282,'Widget 12282',161.0,True
12283,'Widget 12283',163.33,False
12284,'Widget 12284',165.67,True
12285,'Widget 12285',168.0,False
12286,'Widget 12286',3.67,True
12287,'Widget 12287',6.0,False
12288,'Widget 12288',8.33,True
12289,'Widget 12289',10.67,False
12290,'Widget 12290',13.0,True
12291,'Widget 12291',15.33,False
12292,'Widget 12292',17.67,True
12293,'Widget 12293',20.0,False
12294,'Widget 12294',22.33,True
12295,'Widget 12295',24.67,False
12296,'Widget 12296',27.0,True
12297,'Widget 12297',29.33,False
12298,'Widget 12298',31.67,True
12299,'Widget 12299',34.0,False
12300,'Widget 12300',36.33,True
12301,'Widget 12301',38.67,False
12302,'Widget 12302',41.0,True
12303,'Widget 12303',43.33,False
12304,'Widget 12304',45.67,True
12305,'Widget 12305',48.0,False
12306,'Widget 12306',50.33,True
12307,'Widget 12307',52.67,False
12308,'Widget 12308',55.0,True
12309,'Widget 12309',57.33,False
12310,'Widget 12310',59.67,True
12311,'Widget 12311',62.0,False
12312,'Widget 12312',64.33,True
12313,'Widget 12313',66.67,False
12314,'Widget 12314',69.0,True
12315,'Widget 12315',71.33,False
12316,'Widget 12316',73.67,True
12317,'Widget 12317',76.0,False
12318,'Widget 12318',78.33,True
12319,'Widget 12319',80.67,False
12320,'Widget 12320',83.0,True
12321,'Widget 12321',85.33,False
12322,'Widget 12322',87.67,True
12323,'Widget 12323',90.0,False
12324,'Widget 12324',92.33,True
12325,'Widget 12325',94.67,False
12326,'Widget 12326',97.0,True
12327,'Widget 12327',99.33,False
12328,'Widget 12328',101.67,True
12329,'Widget 12329',104.0,False
12330,'Widget 12330',106.33,True
12331,'Widget 12331',108.67,False
12332,'Widget 12332',111.0,True
12333,'Widget 12333',113.33,False
12334,'Widget 12334',115.67,True
12335,'Widget 12335',118.0,False
12336,'Widget 12336',120.33,True
12337,'Widget 12337',122.67,False
12338,'Widget 12338',125.0,True
12339,'Widget 12339',127.33,False
12340,'Widget 12340',129.67,True
12341,'Widget 12341',132.0,False
12342,'Widget 12342',134.33,True
12343,'Widget 12343',136.67,False
12344,'Widget 12344',139.0,True
12345,'Widget 12345',141.33,False
12346,'Widget 12346',143.67,True
12347,'Widget 12347',146.0,False
12348,'Widget 12348',148.33,True
12349,'Widget 12349',150.67,False
12350,'Widget 12350',153.0,True
12351,'Widget 12351',155.33,False
12352,'Widget 12352',157.67,True
12353,'Widget 12353',160.0,False
12354,'Widget 12354',162.33,True
12355,'Widget 12355',164.67,False
12356,'Widget 12356',167.0,True
12357,'Widget 12357',169.33,False
12358,'Widget 12358',5.0,True
12359,'Widget 12359',7.33,False
12360,'Widget 12360',9.67,True
12361,'Widget 12361',12.0,False
12362,'Widget 12362',14.33,True
12363,'Widget 12363',16.67,False
12364,'Widget 12364',19.0,True
12365,'Widget 12365',21.33,False
12366,'Widget 12366',23.67,True
12367,'Widget 12367',26.0,False
12368,'Widget 12368',28.33,True
12369,'Widget 12369',30.67,False
12370,'Widget 12370',33.0,True
12371,'Widget 12371',35.33,False
12372,'Widget 12372',37.67,True
12373,'Widget 12373',40.0,False
12374,'Widget 12374',42.33,True
12375,'Widget 12375',44.67,False
12376,'Widget 12376',47.0,True
12377,'Widget 12377',49.33,False
12378,'Widget 12378',51.67,True
12379,'Widget 12379',54.0,False
12380,'Widget 12380',56.33,True
12381,'Widget 12381',58.67,False
12382,'Widget 12382',61.0,True
12383,'Widget 12383',63.33,False
12384,'Widget 12384',65.67,True
12385,'Widget 12385',68.0,False
12386,'Widget 12386',70.33,True
12387,'Widget 12387',72.67,False
12388,'Widget 12388',75.0,True
12389,'Widget 12389',77.33,False
12390,'Widget 12390',79.67,True
12391,'Widget 12391',82.0,False
12392,'Widget 12392',84.33,True
12393,'Widget 12393',86.67,False
12394,'Widget 12394',89.0,True
12395,'Widget 12395',91.33,False
12396,'Widget 12396',93.67,True
12397,'Widget 12397',96.0,False
12398,'Widget 12398',98.33,True
12399,'Widget 12399',100.67,False
12400,'Widget 12400',103.0,True
12401,'Widget 12401',105.33,False
12402,'Widget 12402',107.67,True
12403,'Widget 12403',110.0,False
12404,'Widget 12404',112.33,True
12405,'Widget 12405',114.67,False
12406,'Widget 12406',117.0,True
12407,'Widget 12407',119.33,False
12408,'Widget 12408',121.67,True
12409,'Widget 12409',124.0,False
12410,'Widget 12410',126.33,True
12411,'Widget 12411',128.67,False
12412,'Widget 12412',131.0,True
12413,'Widget 12413',133.33,False
12414,'Widget 12414',135.67,True
12415,'Widget 12415',138.0,False
12416,'Widget 12416',140.33,True
12417,'Widget 12417',142.67,False
12418,'Widget 12418',145.0,True
12419,'Widget 12419',147.33,False
12420,'Widget 12420',149.67,True
12421,'Widget 12421',152.0,False
12422,'Widget 12422',154.33,True
12423,'Widget 12423',156.67,False
12424,'Widget 12424',159.0,True
12425,'Widget 12425',161.33,False
12426,'Widget 12426',163.67,True
12427,'Widget 12427',166.0,False
12428,'Widget 12428',168.33,True
12429,'Widget 12429',4.0,False
12430,'Widget 12430',6.33,True
12431,'Widget 12431',8.67,False
12432,'Widget 12432',11.0,True
12433,'Widget 12433',13.33,False
12434,'Widget 12434',15.67,True
12435,'Widget 12435',18.0,False
12436,'Widget 12436',20.33,True
12437,'Widget 12437',22.67,False
12438,'Widget 12438',25.0,True
12439,'Widget 12439',27.33,False
12440,'Widget 12440',29.67,True
12441,'Widget 12441',32.0,False
12442,'Widget 12442',34.33,True
12443,'Widget 12443',36.67,False
12444,'Widget 12444',39.0,True
12445,'Widget 12445',41.33,False
12446,'Widget 12446',43.67,True
12447,'Widget 12447',46.0,False
12448,'Widget 12448',48.33,True
12449,'Widget 12449',50.67,False
12450,'Widget 12450',53.0,True
12451,'Widget 12451',55.33,False
12452,'Widget 12452',57.67,True
12453,'Widget 12453',60.0,False
12454,'Widget 12454',62.33,True
12455,'Widget 12455',64.67,False
12456,'Widget 12456',67.0,True
12457,'Widget 12457',69.33,False
12458,'Widget 12458',71.67,True
12459,'Widget 12459',74.0,False
12460,'Widget 12460',76.33,True
12461,'Widget 12461',78.67,False
12462,'Widget 12462',81.0,True
12463,'Widget 12463',83.33,False
12464,'Widget 12464',85.67,True
12465,'Widget 12465',88.0,False
12466,'Widget 12466',90.33,True
12467,'Widget 12467',92.67,False
12468,'Widget 12468',95.0,True
12469,'Widget 12469',97.33,False
12470,'Widget 12470',99.67,True
12471,'Widget 12471',102.0,False
12472,'Widget 12472',104.33,True
12473,'Widget 12473',106.67,False
12474,'Widget 12474',109.0,True
12475,'Widget 12475',111.33,False
12476,'Widget 12476',113.67,True
12477,'Widget 12477',116.0,False
12478,'Widget 12478',118.33,True
12479,'Widget 12479',120.67,False
12480,'Widget 12480',123.0,True
12481,'Widget 12481',125.33,False
12482,'Widget 12482',127.67,True
12483,'Widget 12483',130.0,False
12484,'Widget 12484',132.33,True
12485,'Widget 12485',134.67,False
12486,'Widget 12486',137.0,True
12487,'Widget 12487',139.33,False
12488,'Widget 12488',141.67,True
12489,'Widget 12489',144.0,False
12490,'Widget 12490',146.33,True
12491,'Widget 12491',148.67,False
12492,'Widget 12492',151.0,True
12493,'Widget 12493',153.33,False
12494,'Widget 12494',155.67,True
12495,'Widget 12495',158.0,False
12496,'Widget 12496',160.33,True
12497,'Widget 12497',162.67,False
12498,'Widget 12498',165.0,True
12499,'Widget 12499',167.33,False
12500,'Widget 12500',3.0,True
12501,'Widget 12501',5.33,False
12502,'Widget 12502',7.67,True
12503,'Widget 12503',10.0,False
12504,'Widget 12504',12.33,True
12505,'Widget 12505',14.67,False
12506,'Widget 12506',17.0,True
12507,'Widget 12507',19.33,False
12508,'Widget 12508',21.67,True
12509,'Widget 12509',24.0,False
12510,'Widget 12510',26.33,True
12511,'Widget 12511',28.67,False
12512,'Widget 12512',31.0,True
12513,'Widget 12513',33.33,False
12514,'Widget 12514',35.67,True
12515,'Widget 12515',38.0,False
12516,'Widget 12516',40.33,True
12517,'Widget 12517',42.67,False
12518,'Widget 12518',45.0,True
12519,'Widget 12519',47.33,False
12520,'Widget 12520',49.67,True
12521,'Widget 12521',52.0,False
12522,'Widget 12522',54.33,True
12523,'Widget 12523',56.67,False
12524,'Widget 12524',59.0,True
12525,'Widget 12525',61.33,False
12526,'Widget 12526',63.67,True
12527,'Widget 12527',66.0,False
12528,'Widget 12528',68.33,True
12529,'Widget 12529',70.67,False
12530,'Widget 12530',73.0,True
12531,'Widget 12531',75.33,False
12532,'Widget 12532',77.67,True
12533,'Widget 12533',80.0,False
12534,'Widget 12534',82.33,True
12535,'Widget 12535',84.67,False
12536,'Widget 12536',87.0,True
12537,'Widget 12537',89.33,False
12538,'Widget 12538',91.67,True
12539,'Widget 12539',94.0,False
12540,'Widget 12540',96.33,True
12541,'Widget 12541',98.67,False
12542,'Widget 12542',101.0,True
12543,'Widget 12543',103.33,False
12544,'Widget 12544',105.67,True
12545,'Widget 12545',108.0,False
12546,'Widget 12546',110.33,True
12547,'Widget 12547',112.67,False
12548,'Widget 12548',115.0,True
12549,'Widget 12549',117.33,False
12550,'Widget 12550',119.67,True
12551,'Widget 12551',122.0,False
12552,'Widget 12552',124.33,True
12553,'Widget 12553',126.67,False
12554,'Widget 12554',129.0,True
12555,'Widget 12555',131.33,False
12556,'Widget 12556',133.67,True
12557,'Widget 12557',136.0,False
12558,'Widget 12558',138.33,True
12559,'Widget 12559',140.67,False
12560,'Widget 12560',143.0,True
12561,'Widget 12561',145.33,False
12562,'Widget 12562',147.67,True
12563,'Widget 12563',150.0,False
12564,'Widget 12564',152.33,True
12565,'Widget 12565',154.67,False
12566,'Widget 12566',157.0,True
12567,'Widget 12567',159.33,False
12568,'Widget 12568',161.67,True
12569,'Widget 12569',164.0,False
12570,'Widget 12570',166.33,True
12571,'Widget 12571',168.67,False
12572,'Widget 12572',4.33,True
12573,'Widget 12573',6.67,False
12574,'Widget 12574',9.0,True
12575,'Widget 12575',11.33,False
12576,'Widget 12576',13.67,True
12577,'Widget 12577',16.0,False
12578,'Widget 12578',18.33,True
12579,'Widget 12579',20.67,False
12580,'Widget 12580',23.0,True
12581,'Widget 12581',25.33,False
12582,'Widget 12582',27.67,True
12583,'Widget 12583',30.0,False
12584,'Widget 12584',32.33,True
12585,'Widget 12585',34.67,False
12586,'Widget 12586',37.0,True
12587,'Widget 12587',39.33,False
12588,'Widget 12588',41.67,True
12589,'Widget 12589',44.0,False
12590,'Widget 12590',46.33,True
12591,'Widget 12591',48.67,False
12592,'Widget 12592',51.0,True
12593,'Widget 12593',53.33,False
12594,'Widget 12594',55.67,True
12595,'Widget 12595',58.0,False
12596,'Widget 12596',60.33,True
12597,'Widget 12597',62.67,False
12598,'Widget 12598',65.0,True
12599,'Widget 12599',67.33,False
12600,'Widget 12600',69.67,True
12601,'Widget 12601',72.0,False
12602,'Widget 12602',74.33,True
12603,'Widget 12603',76.67,False
12604,'Widget 12604',79.0,True
12605,'Widget 12605',81.33,False
12606,'Widget 12606',83.67,True
12607,'Widget 12607',86.0,False
12608,'Widget 12608',88.33,True
12609,'Widget 12609',90.67,False
12610,'Widget 12610',93.0,True
12611,'Widget 12611',95.33,False
12612,'Widget 12612',97.67,True
12613,'Widget 12613',100.0,False
12614,'Widget 12614',102.33,True
12615,'Widget 12615',104.67,False
12616,'Widget 12616',107.0,True
12617,'Widget 12617',109.33,False
12618,'Widget 12618',111.67,True
12619,'Widget 12619',114.0,False
12620,'Widget 12620',116.33,True
12621,'Widget 12621',118.67,False
12622,'Widget 12622',121.0,True
12623,'Widget 12623',123.33,False
12624,'Widget 12624',125.67,True
12625,'Widget 12625',128.0,False
12626,'Widget 12626',130.33,True
12627,'Widget 12627',132.67,False
12628,'Widget 12628',135.0,True
12629,'Widget 12629',137.33,False
12630,'Widget 12630',139.67,True
12631,'Widget 12631',142.0,False
12632,'Widget 12632',144.33,True
12633,'Widget 12633',146.67,False
12634,'Widget 12634',149.0,True
12635,'Widget 12635',151.33,False
12636,'Widget 12636',153.67,True
12637,'Widget 12637',156.0,False
12638,'Widget 12638',158.33,True
12639,'Widget 12639',160.67,False
12640,'Widget 12640',163.0,True
12641,'Widget 12641',165.33,False
12642,'Widget 12642',167.67,True
12643,'Widget 12643',3.33,False
12644,'Widget 12644',5.67,True
12645,'Widget 12645',8.0,False
12646,'Widget 12646',10.33,True
12647,'Widget 12647',12.67,False
12648,'Widget 12648',15.0,True
12649,'Widget 12649',17.33,False
12650,'Widget 12650',19.67,True
12651,'Widget 12651',22.0,False
12652,'Widget 12652',24.33,True
12653,'Widget 12653',26.67,False
12654,'Widget 12654',29.0,True
12655,'Widget 12655',31.33,False
12656,'Widget 12656',33.67,True
12657,'Widget 12657',36.0,False
12658,'Widget 12658',38.33,True
12659,'Widget 12659',40.67,False
12660,'Widget 12660',43.0,True
12661,'Widget 12661',45.33,False
12662,'Widget 12662',47.67,True
12663,'Widget 12663',50.0,False
12664,'Widget 12664',52.33,True
12665,'Widget 12665',54.67,False
12666,'Widget 12666',57.0,True
12667,'Widget 12667',59.33,False
12668,'Widget 12668',61.67,True
12669,'Widget 12669',64.0,False
12670,'Widget 12670',66.33,True
12671,'Widget 12671',68.67,False
12672,'Widget 12672',71.0,True
12673,'Widget 12673',73.33,False
12674,'Widget 12674',75.67,True
12675,'Widget 12675',78.0,False
12676,'Widget 12676',80.33,True
12677,'Widget 12677',82.67,False
12678,'Widget 12678',85.0,True
12679,'Widget 12679',87.33,False
12680,'Widget 12680',89.67,True
12681,'Widget 12681',92.0,False
12682,'Widget 12682',94.33,True
12683,'Widget 12683',96.67,False
12684,'Widget 12684',99.0,True
12685,'Widget 12685',101.33,False
12686,'Widget 12686',103.67,True
12687,'Widget 12687',106.0,False
12688,'Widget 12688',108.33,True
12689,'Widget 12689',110.67,False
12690,'Widget 12690',113.0,True
12691,'Widget 12691',115.33,False
12692,'Widget 12692',117.67,True
12693,'Widget 12693',120.0,False
12694,'Widget 12694',122.33,True
12695,'Widget 12695',124.67,False
12696,'Widget 12696',127.0,True
12697,'Widget 12697',129.33,False
12698,'Widget 12698',131.67,True
12699,'Widget 12699',134.0,False
12700,'Widget 12700',136.33,True
12701,'Widget 12701',138.67,False
12702,'Widget 12702',141.0,True
12703,'Widget 12703',143.33,False
12704,'Widget 12704',145.67,True
12705,'Widget 12705',148.0,False
12706,'Widget 12706',150.33,True
12707,'Widget 12707',152.67,False
12708,'Widget 12708',155.0,True
12709,'Widget 12709',157.33,False
12710,'Widget 12710',159.67,True
12711,'Widget 12711',162.0,False
12712,'Widget 12712',164.33,True
12713,'Widget 12713',166.67,False
12714,'Widget 12714',169.0,True
12715,'Widget 12715',4.67,False
12716,'Widget 12716',7.0,True
12717,'Widget 12717',9.33,False
12718,'Widget 12718',11.67,True
12719,'Widget 12719',14.0,False
12720,'Widget 12720',16.33,True
12721,'Widget 12721',18.67,False
12722,'Widget 12722',21.0,True
12723,'Widget 12723',23.33,False
12724,'Widget 12724',25.67,True
12725,'Widget 12725',28.0,False
12726,'Widget 12726',30.33,True
12727,'Widget 12727',32.67,False
12728,'Widget 12728',35.0,True
12729,'Widget 12729',37.33,False
12730,'Widget 12730',39.67,True
12731,'Widget 12731',42.0,False
12732,'Widget 12732',44.33,True
12733,'Widget 12733',46.67,False
12734,'Widget 12734',49.0,True
12735,'Widget 12735',51.33,False
12736,'Widget 12736',53.67,True
12737,'Widget 12737',56.0,False
12738,'Widget 12738',58.33,True
12739,'Widget 12739',60.67,False
12740,'Widget 12740',63.0,True
12741,'Widget 12741',65.33,False
12742,'Widget 12742',67.67,True
12743,'Widget 12743',70.0,False
12744,'Widget 12744',72.33,True
12745,'Widget 12745',74.67,False
12746,'Widget 12746',77.0,True
12747,'Widget 12747',79.33,False
12748,'Widget 12748',81.67,True
12749,'Widget 12749',84.0,False
12750,'Widget 12750',86.33,True
12751,'Widget 12751',88.67,False
12752,'Widget 12752',91.0,True
12753,'Widget 12753',93.33,False
12754,'Widget 12754',95.67,True
12755,'Widget 12755',98.0,False
12756,'Widget 12756',100.33,True
12757,'Widget 12757',102.67,False
12758,'Widget 12758',105.0,True
12759,'Widget 12759',107.33,False
12760,'Widget 12760',109.67,True
12761,'Widget 12761',112.0,False
12762,'Widget 12762',114.33,True
12763,'Widget 12763',116.67,False
12764,'Widget 12764',119.0,True
12765,'Widget 12765',121.33,False
12766,'Widget 12766',123.67,True
12767,'Widget 12767',126.0,False
12768,'Widget 12768',128.33,True
12769,'Widget 12769',130.67,False
12770,'Widget 12770',133.0,True
12771,'Widget 12771',135.33,False
12772,'Widget 12772',137.67,True
12773,'Widget 12773',140.0,False
12774,'Widget 12774',142.33,True
12775,'Widget 12775',144.67,False
12776,'Widget 12776',147.0,True
12777,'Widget 12777',149.33,False
12778,'Widget 12778',151.67,True
12779,'Widget 12779',154.0,False
12780,'Widget 12780',156.33,True
12781,'Widget 12781',158.67,False
12782,'Widget 12782',161.0,True
12783,'Widget 12783',163.33,False
12784,'Widget 12784',165.67,True
12785,'Widget 12785',168.0,False
12786,'Widget 12786',3.67,True
12787,'Widget 12787',6.0,False
12788,'Widget 12788',8.33,True
12789,'Widget 12789',10.67,False
12790,'Widget 12790',13.0,True
12791,'Widget 12791',15.33,False
12792,'Widget 12792',17.67,True
12793,'Widget 12793',20.0,False
12794,'Widget 12794',22.33,True
12795,'Widget 12795',24.67,False
12796,'Widget 12796',27.0,True
12797,'Widget 12797',29.33,False
12798,'Widget 12798',31.67,True
12799,'Widget 12799',34.0,False
12800,'Widget 12800',36.33,True
12801,'Widget 12801',38.67,False
12802,'Widget 12802',41.0,True
12803,'Widget 12803',43.33,False
12804,'Widget 12804',45.67,True
12805,'Widget 12805',48.0,False
12806,'Widget 12806',50.33,True
12807,'Widget 12807',52.67,False
12808,'Widget 12808',55.0,True
12809,'Widget 12809',57.33,False
12810,'Widget 12810',59.67,True
12811,'Widget 12811',62.0,False
12812,'Widget 12812',64.33,True
12813,'Widget 12813',66.67,False
12814,'Widget 12814',69.0,True
12815,'Widget 12815',71.33,False
12816,'Widget 12816',73.67,True
12817,'Widget 12817',76.0,False
12818,'Widget 12818',78.33,True
12819,'Widget 12819',80.67,False
12820,'Widget 12820',83.0,True
12821,'Widget 12821',85.33,False
12822,'Widget 12822',87.67,True
12823,'Widget 12823',90.0,False
12824,'Widget 12824',92.33,True
12825,'Widget 12825',94.67,False
12826,'Widget 12826',97.0,True
12827,'Widget 12827',99.33,False
12828,'Widget 12828',101.67,True
12829,'Widget 12829',104.0,False
12830,'Widget 12830',106.33,True
12831,'Widget 12831',108.67,False
12832,'Widget 12832',111.0,True
12833,'Widget 12833',113.33,False
12834,'Widget 12834',115.67,True
12835,'Widget 12835',118.0,False
12836,'Widget 12836',120.33,True
12837,'Widget 12837',122.67,False
12838,'Widget 12838',125.0,True
12839,'Widget 12839',127.33,False
12840,'Widget 12840',129.67,True
12841,'Widget 12841',132.0,False
12842,'Widget 12842',134.33,True
12843,'Widget 12843',136.67,False
12844,'Widget 12844',139.0,True
12845,'Widget 12845',141.33,False
12846,'Widget 12846',143.67,True
12847,'Widget 12847',146.0,False
12848,'Widget 12848',148.33,True
12849,'Widget 12849',150.67,False
12850,'Widget 12850',153.0,True
12851,'Widget 12851',155.33,False
12852,'Widget 12852',157.67,True
12853,'Widget 12853',160.0,False
12854,'Widget 12854',162.33,True
12855,'Widget 12855',164.67,False
12856,'Widget 12856',167.0,True
12857,'Widget 12857',169.33,False
12858,'Widget 12858',5.0,True
12859,'Widget 12859',7.33,False
12860,'Widget 12860',9.67,True
12861,'Widget 12861',12.0,False
12862,'Widget 12862',14.33,True
12863,'Widget 12863',16.67,False
12864,'Widget 12864',19.0,True
12865,'Widget 12865',21.33,False
12866,'Widget 12866',23.67,True
12867,'Widget 12867',26.0,False
12868,'Widget 12868',28.33,True
12869,'Widget 12869',30.67,False
12870,'Widget 12870',33.0,True
12871,'Widget 12871',35.33,False
12872,'Widget 12872',37.67,True
12873,'Widget 12873',40.0,False
12874,'Widget 12874',42.33,True
12875,'Widget 12875',44.67,False
12876,'Widget 12876',47.0,True
12877,'Widget 12877',49.33,False
12878,'Widget 12878',51.67,True
12879,'Widget 12879',54.0,False
12880,'Widget 12880',56.33,True
12881,'Widget 12881',58.67,False
12882,'Widget 12882',61.0,True
12883,'Widget 12883',63.33,False
12884,'Widget 12884',65.67,True
12885,'Widget 12885',68.0,False
12886,'Widget 12886',70.33,True
12887,'Widget 12887',72.67,False
12888,'Widget 12888',75.0,True
12889,'Widget 12889',77.33,False
12890,'Widget 12890',79.67,True
12891,'Widget 12891',82.0,False
12892,'Widget 12892',84.33,True
12893,'Widget 12893',86.67,False
12894,'Widget 12894',89.0,True
12895,'Widget 12895',91.33,False
12896,'Widget 12896',93.67,True
12897,'Widget 12897',96.0,False
12898,'Widget 12898',98.33,True
12899,'Widget 12899',100.67,False
12900,'Widget 12900',103.0,True
12901,'Widget 12901',105.33,False
12902,'Widget 12902',107.67,True
12903,'Widget 12903',110.0,False
12904,'Widget 12904',112.33,True
12905,'Widget 12905',114.67,False
12906,'Widget 12906',117.0,True
12907,'Widget 12907',119.33,False
12908,'Widget 12908',121.67,True
12909,'Widget 12909',124.0,False
12910,'Widget 12910',126.33,True
12911,'Widget 12911',128.67,False
12912,'Widget 12912',131.0,True
12913,'Widget 12913',133.33,False
12914,'Widget 12914',135.67,True
12915,'Widget 12915',138.0,False
12916,'Widget 12916',140.33,True
12917,'Widget 12917',142.67,False
12918,'Widget 12918',145.0,True
12919,'Widget 12919',147.33,False
12920,'Widget 12920',149.67,True
12921,'Widget 12921',152.0,False
12922,'Widget 12922',154.33,True
12923,'Widget 12923',156.67,False
12924,'Widget 12924',159.0,True
12925,'Widget 12925',161.33,False
12926,'Widget 12926',163.67,True
12927,'Widget 12927',166.0,False
12928,'Widget 12928',168.33,True
12929,'Widget 12929',4.0,False
12930,'Widget 12930',6.33,True
12931,'Widget 12931',8.67,False
12932,'Widget 12932',11.0,True
12933,'Widget 12933',13.33,False
12934,'Widget 12934',15.67,True
12935,'Widget 12935',18.0,False
12936,'Widget 12936',20.33,True
12937,'Widget 12937',22.67,False
12938,'Widget 12938',25.0,True
12939,'Widget 12939',27.33,False
12940,'Widget 12940',29.67,True
12941,'Widget 12941',32.0,False
12942,'Widget 12942',34.33,True
12943,'Widget 12943',36.67,False
12944,'Widget 12944',39.0,True
12945,'Widget 12945',41.33,False
12946,'Widget 12946',43.67,True
12947,'Widget 12947',46.0,False
12948,'Widget 12948',48.33,True
12949,'Widget 12949',50.67,False
12950,'Widget 12950',53.0,True
12951,'Widget 12951',55.33,False
12952,'Widget 12952',57.67,True
12953,'Widget 12953',60.0,False
12954,'Widget 12954',62.33,True
12955,'Widget 12955',64.67,False
12956,'Widget 12956',67.0,True
12957,'Widget 12957',69.33,False
12958,'Widget 12958',71.67,True
12959,'Widget 12959',74.0,False
12960,'Widget 12960',76.33,True
12961,'Widget 12961',78.67,False
12962,'Widget 12962',81.0,True
12963,'Widget 12963',83.33,False
12964,'Widget 12964',85.67,True
12965,'Widget 12965',88.0,False
12966,'Widget 12966',90.33,True
12967,'Widget 12967',92.67,False
12968,'Widget 12968',95.0,True
12969,'Widget 12969',97.33,False
12970,'Widget 12970',99.67,True
12971,'Widget 12971',102.0,False
12972,'Widget 12972',104.33,True
12973,'Widget 12973',106.67,False
12974,'Widget 12974',109.0,True
12975,'Widget 12975',111.33,False
12976,'Widget 12976',113.67,True
12977,'Widget 12977',116.0,False
12978,'Widget 12978',118.33,True
12979,'Widget 12979',120.67,False
12980,'Widget 12980',123.0,True
12981,'Widget 12981',125.33,False
12982,'Widget 12982',127.67,True
12983,'Widget 12983',130.0,False
12984,'Widget 12984',132.33,True
12985,'Widget 12985',134.67,False
12986,'Widget 12986',137.0,True
12987,'Widget 12987',139.33,False
12988,'Widget 12988',141.67,True
12989,'Widget 12989',144.0,False
12990,'Widget 12990',146.33,True
12991,'Widget 12991',148.67,False
12992,'Widget 12992',151.0,True
12993,'Widget 12993',153.33,False
12994,'Widget 12994',155.67,True
12995,'Widget 12995',158.0,False
12996,'Widget 12996',160.33,True
12997,'Widget 12997',162.67,False
12998,'Widget 12998',165.0,True
12999,'Widget 12999',167.33,False
13000,'Widget 13000',3.0,True
13001,'Widget 13001',5.33,False
13002,'Widget 13002',7.67,True
13003,'Widget 13003',10.0,False
13004,'Widget 13004',12.33,True
13005,'Widget 13005',14.67,False
13006,'Widget 13006',17.0,True
13007,'Widget 13007',19.33,False
13008,'Widget 13008',21.67,True
13009,'Widget 13009',24.0,False
13010,'Widget 13010',26.33,True
13011,'Widget 13011',28.67,False
13012,'Widget 13012',31.0,True
13013,'Widget 13013',33.33,False
13014,'Widget 13014',35.67,True
13015,'Widget 13015',38.0,False
13016,'Widget 13016',40.33,True
13017,'Widget 13017',42.67,False
13018,'Widget 13018',45.0,True
13019,'Widget 13019',47.33,False
13020,'Widget 13020',49.67,True
13021,'Widget 13021',52.0,False
13022,'Widget 13022',54.33,True
13023,'Widget 13023',56.67,False
13024,'Widget 13024',59.0,True
13025,'Widget 13025',61.33,False
13026,'Widget 13026',63.67,True
13027,'Widget 13027',66.0,False
13028,'Widget 13028',68.33,True
13029,'Widget 13029',70.67,False
13030,'Widget 13030',73.0,True
13031,'Widget 13031',75.33,False
13032,'Widget 13032',77.67,True
13033,'Widget 13033',80.0,False
13034,'Widget 13034',82.33,True
13035,'Widget 13035',84.67,False
13036,'Widget 13036',87.0,True
13037,'Widget 13037',89.33,False
13038,'Widget 13038',91.67,True
13039,'Widget 13039',94.0,False
13040,'Widget 13040',96.33,True
13041,'Widget 13041',98.67,False
13042,'Widget 13042',101.0,True
13043,'Widget 13043',103.33,False
13044,'Widget 13044',105.67,True
13045,'Widget 13045',108.0,False
13046,'Widget 13046',110.33,True
13047,'Widget 13047',112.67,False
13048,'Widget 13048',115.0,True
13049,'Widget 13049',117.33,False
13050,'Widget 13050',119.67,True
13051,'Widget 13051',122.0,False
13052,'Widget 13052',124.33,True
13053,'Widget 13053',126.67,False
13054,'Widget 13054',129.0,True
13055,'Widget 13055',131.33,False
13056,'Widget 13056',133.67,True
13057,'Widget 13057',136.0,False
13058,'Widget 13058',138.33,True
13059,'Widget 13059',140.67,False
13060,'Widget 13060',143.0,True
13061,'Widget 13061',145.33,False
13062,'Widget 13062',147.67,True
13063,'Widget 13063',150.0,False
13064,'Widget 13064',152.33,True
13065,'Widget 13065',154.67,False
13066,'Widget 13066',157.0,True
13067,'Widget 13067',159.33,False
13068,'Widget 13068',161.67,True
13069,'Widget 13069',164.0,False
13070,'Widget 13070',166.33,True
13071,'Widget 13071',168.67,False
13072,'Widget 13072',4.33,True
13073,'Widget 13073',6.67,False
13074,'Widget 13074',9.0,True
13075,'Widget 13075',11.33,False
13076,'Widget 13076',13.67,True
13077,'Widget 13077',16.0,False
13078,'Widget 13078',18.33,True
13079,'Widget 13079',20.67,False
13080,'Widget 13080',23.0,True
13081,'Widget 13081',25.33,False
13082,'Widget 13082',27.67,True
13083,'Widget 13083',30.0,False
13084,'Widget 13084',32.33,True
13085,'Widget 13085',34.67,False
13086,'Widget 13086',37.0,True
13087,'Widget 13087',39.33,False
13088,'Widget 13088',41.67,True
13089,'Widget 13089',44.0,False
13090,'Widget 13090',46.33,True
13091,'Widget 13091',48.67,False
13092,'Widget 13092',51.0,True
13093,'Widget 13093',53.33,False
13094,'Widget 13094',55.67,True
13095,'Widget 13095',58.0,False
13096,'Widget 13096',60.33,True
13097,'Widget 13097',62.67,False
13098,'Widget 13098',65.0,True
13099,'Widget 13099',67.33,False
13100,'Widget 13100',69.67,True
13101,'Widget 13101',72.0,False
13102,'Widget 13102',74.33,True
13103,'Widget 13103',76.67,False
13104,'Widget 13104',79.0,True
13105,'Widget 13105',81.33,False
13106,'Widget 13106',83.67,True
13107,'Widget 13107',86.0,False
13108,'Widget 13108',88.33,True
13109,'Widget 13109',90.67,False
13110,'Widget 13110',93.0,True
13111,'Widget 13111',95.33,False
13112,'Widget 13112',97.67,True
13113,'Widget 13113',100.0,False
13114,'Widget 13114',102.33,True
13115,'Widget 13115',104.67,False
13116,'Widget 13116',107.0,True
13117,'Widget 13117',109.33,False
13118,'Widget 13118',111.67,True
13119,'Widget 13119',114.0,False
13120,'Widget 13120',116.33,True
13121,'Widget 13121',118.67,False
13122,'Widget 13122',121.0,True
13123,'Widget 13123',123.33,False
13124,'Widget 13124',125.67,True
13125,'Widget 13125',128.0,False
13126,'Widget 13126',130.33,True
13127,'Widget 13127',132.67,False
13128,'Widget 13128',135.0,True
13129,'Widget 13129',137.33,False
13130,'Widget 13130',139.67,True
13131,'Widget 13131',142.0,False
13132,'Widget 13132',144.33,True
13133,'Widget 13133',146.67,False
13134,'Widget 13134',149.0,True
13135,'Widget 13135',151.33,False
13136,'Widget 13136',153.67,True
13137,'Widget 13137',156.0,False
13138,'Widget 13138',158.33,True
13139,'Widget 13139',160.67,False
13140,'Widget 13140',163.0,True
13141,'Widget 13141',165.33,False
13142,'Widget 13142',167.67,True
13143,'Widget 13143',3.33,False
13144,'Widget 13144',5.67,True
13145,'Widget 13145',8.0,False
13146,'Widget 13146',10.33,True
13147,'Widget 13147',12.67,False
13148,'Widget 13148',15.0,True
13149,'Widget 13149',17.33,False
13150,'Widget 13150',19.67,True
13151,'Widget 13151',22.0,False
13152,'Widget 13152',24.33,True
13153,'Widget 13153',26.67,False
13154,'Widget 13154',29.0,True
13155,'Widget 13155',31.33,False
13156,'Widget 13156',33.67,True
13157,'Widget 13157',36.0,False
13158,'Widget 13158',38.33,True
13159,'Widget 13159',40.67,False
13160,'Widget 13160',43.0,True
13161,'Widget 13161',45.33,False
13162,'Widget 13162',47.67,True
13163,'Widget 13163',50.0,False
13164,'Widget 13164',52.33,True
13165,'Widget 13165',54.67,False
13166,'Widget 13166',57.0,True
13167,'Widget 13167',59.33,False
13168,'Widget 13168',61.67,True
13169,'Widget 13169',64.0,False
13170,'Widget 13170',66.33,True
13171,'Widget 13171',68.67,False
13172,'Widget 13172',71.0,True
13173,'Widget 13173',73.33,False
13174,'Widget 13174',75.67,True
13175,'Widget 13175',78.0,False
13176,'Widget 13176',80.33,True
13177,'Widget 13177',82.67,False
13178,'Widget 13178',85.0,True
13179,'Widget 13179',87.33,False
13180,'Widget 13180',89.67,True
13181,'Widget 13181',92.0,False
13182,'Widget 13182',94.33,True
13183,'Widget 13183',96.67,False
13184,'Widget 13184',99.0,True
13185,'Widget 13185',101.33,False
13186,'Widget 13186',103.67,True
13187,'Widget 13187',106.0,False
13188,'Widget 13188',108.33,True
13189,'Widget 13189',110.67,False
13190,'Widget 13190',113.0,True
13191,'Widget 13191',115.33,False
13192,'Widget 13192',117.67,True
13193,'Widget 13193',120.0,False
13194,'Widget 13194',122.33,True
13195,'Widget 13195',124.67,False
13196,'Widget 13196',127.0,True
13197,'Widget 13197',129.33,False
13198,'Widget 13198',131.67,True
13199,'Widget 13199',134.0,False
13200,'Widget 13200',136.33,True
13201,'Widget 13201',138.67,False
13202,'Widget 13202',141.0,True
13203,'Widget 13203',143.33,False
13204,'Widget 13204',145.67,True
13205,'Widget 13205',148.0,False
13206,'Widget 13206',150.33,True
13207,'Widget 13207',152.67,False
13208,'Widget 13208',155.0,True
13209,'Widget 13209',157.33,False
13210,'Widget 13210',159.67,True
13211,'Widget 13211',162.0,False
13212,'Widget 13212',164.33,True
13213,'Widget 13213',166.67,False
13214,'Widget 13214',169.0,True
13215,'Widget 13215',4.67,False
13216,'Widget 13216',7.0,True
13217,'Widget 13217',9.33,False
13218,'Widget 13218',11.67,True
13219,'Widget 13219',14.0,False
13220,'Widget 13220',16.33,True
13221,'Widget 13221',18.67,False
13222,'Widget 13222',21.0,True
13223,'Widget 13223',23.33,False
13224,'Widget 13224',25.67,True
13225,'Widget 13225',28.0,False
13226,'Widget 13226',30.33,True
13227,'Widget 13227',32.67,False
13228,'Widget 13228',35.0,True
13229,'Widget 13229',37.33,False
13230,'Widget 13230',39.67,True
13231,'Widget 13231',42.0,False
13232,'Widget 13232',44.33,True
13233,'Widget 13233',46.67,False
13234,'Widget 13234',49.0,True
13235,'Widget 13235',51.33,False
13236,'Widget 13236',53.67,True
13237,'Widget 13237',56.0,False
13238,'Widget 13238',58.33,True
13239,'Widget 13239',60.67,False
13240,'Widget 13240',63.0,True
13241,'Widget 13241',65.33,False
13242,'Widget 13242',67.67,True
13243,'Widget 13243',70.0,False
13244,'Widget 13244',72.33,True
13245,'Widget 13245',74.67,False
13246,'Widget 13246',77.0,True
13247,'Widget 13247',79.33,False
13248,'Widget 13248',81.67,True
13249,'Widget 13249',84.0,False
13250,'Widget 13250',86.33,True
13251,'Widget 13251',88.67,False
13252,'Widget 13252',91.0,True
13253,'Widget 13253',93.33,False
13254,'Widget 13254',95.67,True
13255,'Widget 13255',98.0,False
13256,'Widget 13256',100.33,True
13257,'Widget 13257',102.67,False
13258,'Widget 13258',105.0,True
13259,'Widget 13259',107.33,False
13260,'Widget 13260',109.67,True
13261,'Widget 13261',112.0,False
13262,'Widget 13262',114.33,True
13263,'Widget 13263',116.67,False
13264,'Widget 13264',119.0,True
13265,'Widget 13265',121.33,False
13266,'Widget 13266',123.67,True
13267,'Widget 13267',126.0,False
13268,'Widget 13268',128.33,True
13269,'Widget 13269',130.67,False
13270,'Widget 13270',133.0,True
13271,'Widget 13271',135.33,False
13272,'Widget 13272',137.67,True
13273,'Widget 13273',140.0,False
13274,'Widget 13274',142.33,True
13275,'Widget 13275',144.67,False
13276,'Widget 13276',147.0,True
13277,'Widget 13277',149.33,False
13278,'Widget 13278',151.67,True
13279,'Widget 13279',154.0,False
13280,'Widget 13280',156.33,True
13281,'Widget 13281',158.67,False
13282,'Widget 13282',161.0,True
13283,'Widget 13283',163.33,False
13284,'Widget 13284',165.67,True
13285,'Widget 13285',168.0,False
13286,'Widget 13286',3.67,True
13287,'Widget 13287',6.0,False
13288,'Widget 13288',8.33,True
13289,'Widget 13289',10.67,False
13290,'Widget 13290',13.0,True
13291,'Widget 13291',15.33,False
13292,'Widget 13292',17.67,True
13293,'Widget 13293',20.0,False
13294,'Widget 13294',22.33,True
13295,'Widget 13295',24.67,False
13296,'Widget 13296',27.0,True
13297,'Widget 13297',29.33,False
13298,'Widget 13298',31.67,True
13299,'Widget 13299',34.0,False
13300,'Widget 13300',36.33,True
13301,'Widget 13301',38.67,False
13302,'Widget 13302',41.0,True
13303,'Widget 13303',43.33,False
13304,'Widget 13304',45.67,True
13305,'Widget 13305',48.0,False
13306,'Widget 13306',50.33,True
13307,'Widget 13307',52.67,False
13308,'Widget 13308',55.0,True
13309,'Widget 13309',57.33,False
13310,'Widget 13310',59.67,True
13311,'Widget 13311',62.0,False
13312,'Widget 13312',64.33,True
13313,'Widget 13313',66.67,False
13314,'Widget 13314',69.0,True
13315,'Widget 13315',71.33,False
13316,'Widget 13316',73.67,True
13317,'Widget 13317',76.0,False
13318,'Widget 13318',78.33,True
13319,'Widget 13319',80.67,False
13320,'Widget 13320',83.0,True
13321,'Widget 13321',85.33,False
13322,'Widget 13322',87.67,True
13323,'Widget 13323',90.0,False
13324,'Widget 13324',92.33,True
13325,'Widget 13325',94.67,False
13326,'Widget 13326',97.0,True
13327,'Widget 13327',99.33,False
13328,'Widget 13328',101.67,True
13329,'Widget 13329',104.0,False
13330,'Widget 13330',106.33,True
13331,'Widget 13331',108.67,False
13332,'Widget 13332',111.0,True
13333,'Widget 13333',113.33,False
13334,'Widget 13334',115.67,True
13335,'Widget 13335',118.0,False
13336,'Widget 13336',120.33,True
13337,'Widget 13337',122.67,False
13338,'Widget 13338',125.0,True
13339,'Widget 13339',127.33,False
13340,'Widget 13340',129.67,True
13341,'Widget 13341',132.0,False
13342,'Widget 13342',134.33,True
13343,'Widget 13343',136.67,False
13344,'Widget 13344',139.0,True
13345,'Widget 13345',141.33,False
13346,'Widget 13346',143.67,True
13347,'Widget 13347',146.0,False
13348,'Widget 13348',148.33,True
13349,'Widget 13349',150.67,False
13350,'Widget 13350',153.0,True
13351,'Widget 13351',155.33,False
13352,'Widget 13352',157.67,True
13353,'Widget 13353',160.0,False
13354,'Widget 13354',162.33,True
13355,'Widget 13355',164.67,False
13356,'Widget 13356',167.0,True
13357,'Widget 13357',169.33,False
13358,'Widget 13358',5.0,True
13359,'Widget 13359',7.33,False
13360,'Widget 13360',9.67,True
13361,'Widget 13361',12.0,False
13362,'Widget 13362',14.33,True
13363,'Widget 13363',16.67,False
13364,'Widget 13364',19.0,True
13365,'Widget 13365',21.33,False
13366,'Widget 13366',23.67,True
13367,'Widget 13367',26.0,False
13368,'Widget 13368',28.33,True
13369,'Widget 13369',30.67,False
13370,'Widget 13370',33.0,True
13371,'Widget 13371',35.33,False
13372,'Widget 13372',37.67,True
13373,'Widget 13373',40.0,False
13374,'Widget 13374',42.33,True
13375,'Widget 13375',44.67,False
13376,'Widget 13376',47.0,True
13377,'Widget 13377',49.33,False
13378,'Widget 13378',51.67,True
13379,'Widget 13379',54.0,False
13380,'Widget 13380',56.33,True
13381,'Widget 13381',58.67,False
13382,'Widget 13382',61.0,True
13383,'Widget 13383',63.33,False
13384,'Widget 13384',65.67,True
13385,'Widget 13385',68.0,False
13386,'Widget 13386',70.33,True
13387,'Widget 13387',72.67,False
13388,'Widget 13388',75.0,True
13389,'Widget 13389',77.33,False
13390,'Widget 13390',79.67,True
13391,'Widget 13391',82.0,False
13392,'Widget 13392',84.33,True
13393,'Widget 13393',86.67,False
13394,'Widget 13394',89.0,True
13395,'Widget 13395',91.33,False
13396,'Widget 13396',93.67,True
13397,'Widget 13397',96.0,False
13398,'Widget 13398',98.33,True
13399,'Widget 13399',100.67,False
13400,'Widget 13400',103.0,True
13401,'Widget 13401',105.33,False
13402,'Widget 13402',107.67,True
13403,'Widget 13403',110.0,False
13404,'Widget 13404',112.33,True
13405,'Widget 13405',114.67,False
13406,'Widget 13406',117.0,True
13407,'Widget 13407',119.33,False
13408,'Widget 13408',121.67,True
13409,'Widget 13409',124.0,False
13410,'Widget 13410',126.33,True
13411,'Widget 13411',128.67,False
13412,'Widget 13412',131.0,True
13413,'Widget 13413',133.33,False
13414,'Widget 13414',135.67,True
13415,'Widget 13415',138.0,False
13416,'Widget 13416',140.33,True
13417,'Widget 13417',142.67,False
13418,'Widget 13418',145.0,True
13419,'Widget 13419',147.33,False
13420,'Widget 13420',149.67,True
13421,'Widget 13421',152.0,False
13422,'Widget 13422',154.33,True
13423,'Widget 13423',156.67,False
13424,'Widget 13424',159.0,True
13425,'Widget 13425',161.33,False
13426,'Widget 13426',163.67,True
13427,'Widget 13427',166.0,False
13428,'Widget 13428',168.33,True
13429,'Widget 13429',4.0,False
13430,'Widget 13430',6.33,True
13431,'Widget 13431',8.67,False
13432,'Widget 13432',11.0,True
13433,'Widget 13433',13.33,False
13434,'Widget 13434',15.67,True
13435,'Widget 13435',18.0,False
13436,'Widget 13436',20.33,True
13437,'Widget 13437',22.67,False
13438,'Widget 13438',25.0,True
13439,'Widget 13439',27.33,False
13440,'Widget 13440',29.67,True
13441,'Widget 13441',32.0,False
13442,'Widget 13442',34.33,True
13443,'Widget 13443',36.67,False
13444,'Widget 13444',39.0,True
13445,'Widget 13445',41.33,False
13446,'Widget 13446',43.67,True
13447,'Widget 13447',46.0,False
13448,'Widget 13448',48.33,True
13449,'Widget 13449',50.67,False
13450,'Widget 13450',53.0,True
13451,'Widget 13451',55.33,False
13452,'Widget 13452',57.67,True
13453,'Widget 13453',60.0,False
13454,'Widget 13454',62.33,True
13455,'Widget 13455',64.67,False
13456,'Widget 13456',67.0,True
13457,'Widget 13457',69.33,False
13458,'Widget 13458',71.67,True
13459,'Widget 13459',74.0,False
13460,'Widget 13460',76.33,True
13461,'Widget 13461',78.67,False
13462,'Widget 13462',81.0,True
13463,'Widget 13463',83.33,False
13464,'Widget 13464',85.67,True
13465,'Widget 13465',88.0,False
13466,'Widget 13466',90.33,True
13467,'Widget 13467',92.67,False
13468,'Widget 13468',95.0,True
13469,'Widget 13469',97.33,False
13470,'Widget 13470',99.67,True
13471,'Widget 13471',102.0,False
13472,'Widget 13472',104.33,True
13473,'Widget 13473',106.67,False
13474,'Widget 13474',109.0,True
13475,'Widget 13475',111.33,False
13476,'Widget 13476',113.67,True
13477,'Widget 13477',116.0,False
13478,'Widget 13478',118.33,True
13479,'Widget 13479',120.67,False
13480,'Widget 13480',123.0,True
13481,'Widget 13481',125.33,False
13482,'Widget 13482',127.67,True
13483,'Widget 13483',130.0,False
13484,'Widget 13484',132.33,True
13485,'Widget 13485',134.67,False
13486,'Widget 13486',137.0,True
13487,'Widget 13487',139.33,False
13488,'Widget 13488',141.67,True
13489,'Widget 13489',144.0,False
13490,'Widget 13490',146.33,True
13491,'Widget 13491',148.67,False
13492,'Widget 13492',151.0,True
13493,'Widget 13493',153.33,False
13494,'Widget 13494',155.67,True
13495,'Widget 13495',158.0,False
13496,'Widget 13496',160.33,True
13497,'Widget 13497',162.67,False
13498,'Widget 13498',165.0,True
13499,'Widget 13499',167.33,False
13500,'Widget 13500',3.0,True
13501,'Widget 13501',5.33,False
13502,'Widget 13502',7.67,True
13503,'Widget 13503',10.0,False
13504,'Widget 13504',12.33,True
13505,'Widget 13505',14.67,False
13506,'Widget 13506',17.0,True
13507,'Widget 13507',19.33,False
13508,'Widget 13508',21.67,True
13509,'Widget 13509',24.0,False
13510,'Widget 13510',26.33,True
13511,'Widget 13511',28.67,False
13512,'Widget 13512',31.0,True
13513,'Widget 13513',33.33,False
13514,'Widget 13514',35.67,True
13515,'Widget 13515',38.0,False
13516,'Widget 13516',40.33,True
13517,'Widget 13517',42.67,False
13518,'Widget 13518',45.0,True
13519,'Widget 13519',47.33,False
13520,'Widget 13520',49.67,True
13521,'Widget 13521',52.0,False
13522,'Widget 13522',54.33,True
13523,'Widget 13523',56.67,False
13524,'Widget 13524',59.0,True
13525,'Widget 13525',61.33,False
13526,'Widget 13526',63.67,True
13527,'Widget 13527',66.0,False
13528,'Widget 13528',68.33,True
13529,'Widget 13529',70.67,False
13530,'Widget 13530',73.0,True
13531,'Widget 13531',75.33,False
13532,'Widget 13532',77.67,True
13533,'Widget 13533',80.0,False
13534,'Widget 13534',82.33,True
13535,'Widget 13535',84.67,False
13536,'Widget 13536',87.0,True
13537,'Widget 13537',89.33,False
13538,'Widget 13538',91.67,True
13539,'Widget 13539',94.0,False
13540,'Widget 13540',96.33,True
13541,'Widget 13541',98.67,False
13542,'Widget 13542',101.0,True
13543,'Widget 13543',103.33,False
13544,'Widget 13544',105.67,True
13545,'Widget 13545',108.0,False
13546,'Widget 13546',110.33,True
13547,'Widget 13547',112.67,False
13548,'Widget 13548',115.0,True
13549,'Widget 13549',117.33,False
13550,'Widget 13550',119.67,True
13551,'Widget 13551',122.0,False
13552,'Widget 13552',124.33,True
13553,'Widget 13553',126.67,False
13554,'Widget 13554',129.0,True
13555,'Widget 13555',131.33,False
13556,'Widget 13556',133.67,True
13557,'Widget 13557',136.0,False
13558,'Widget 13558',138.33,True
13559,'Widget 13559',140.67,False
13560,'Widget 13560',143.0,True
13561,'Widget 13561',145.33,False
13562,'Widget 13562',147.67,True
13563,'Widget 13563',150.0,False
13564,'Widget 13564',152.33,True
13565,'Widget 13565',154.67,False
13566,'Widget 13566',157.0,True
13567,'Widget 13567',159.33,False
13568,'Widget 13568',161.67,True
13569,'Widget 13569',164.0,False
13570,'Widget 13570',166.33,True
13571,'Widget 13571',168.67,False
13572,'Widget 13572',4.33,True
13573,'Widget 13573',6.67,False
13574,'Widget 13574',9.0,True
13575,'Widget 13575',11.33,False
13576,'Widget 13576',13.67,True
13577,'Widget 13577',16.0,False
13578,'Widget 13578',18.33,True
13579,'Widget 13579',20.67,False
13580,'Widget 13580',23.0,True
13581,'Widget 13581',25.33,False
13582,'Widget 13582',27.67,True
13583,'Widget 13583',30.0,False
13584,'Widget 13584',32.33,True
13585,'Widget 13585',34.67,False
13586,'Widget 13586',37.0,True
13587,'Widget 13587',39.33,False
13588,'Widget 13588',41.67,True
13589,'Widget 13589',44.0,False
13590,'Widget 13590',46.33,True
13591,'Widget 13591',48.67,False
13592,'Widget 13592',51.0,True
13593,'Widget 13593',53.33,False
13594,'Widget 13594',55.67,True
13595,'Widget 13595',58.0,False
13596,'Widget 13596',60.33,True
13597,'Widget 13597',62.67,False
13598,'Widget 13598',65.0,True
13599,'Widget 13599',67.33,False
13600,'Widget 13600',69.67,True
13601,'Widget 13601',72.0,False
13602,'Widget 13602',74.33,True
13603,'Widget 13603',76.67,False
13604,'Widget 13604',79.0,True
13605,'Widget 13605',81.33,False
13606,'Widget 13606',83.67,True
13607,'Widget 13607',86.0,False
13608,'Widget 13608',88.33,True
13609,'Widget 13609',90.67,False
13610,'Widget 13610',93.0,True
13611,'Widget 13611',95.33,False
13612,'Widget 13612',97.67,True
13613,'Widget 13613',100.0,False
13614,'Widget 13614',102.33,True
13615,'Widget 13615',104.67,False
13616,'Widget 13616',107.0,True
13617,'Widget 13617',109.33,False
13618,'Widget 13618',111.67,True
13619,'Widget 13619',114.0,False
13620,'Widget 13620',116.33,True
13621,'Widget 13621',118.67,False
13622,'Widget 13622',121.0,True
13623,'Widget 13623',123.33,False
13624,'Widget 13624',125.67,True
13625,'Widget 13625',128.0,False
13626,'Widget 13626',130.33,True
13627,'Widget 13627',132.67,False
13628,'Widget 13628',135.0,True
13629,'Widget 13629',137.33,False
13630,'Widget 13630',139.67,True
13631,'Widget 13631',142.0,False
13632,'Widget 13632',144.33,True
13633,'Widget 13633',146.67,False
13634,'Widget 13634',149.0,True
13635,'Widget 13635',151.33,False
13636,'Widget 13636',153.67,True
13637,'Widget 13637',156.0,False
13638,'Widget 13638',158.33,True
13639,'Widget 13639',160.67,False
13640,'Widget 13640',163.0,True
13641,'Widget 13641',165.33,False
13642,'Widget 13642',167.67,True
13643,'Widget 13643',3.33,False
13644,'Widget 13644',5.67,True
13645,'Widget 13645',8.0,False
13646,'Widget 13646',10.33,True
13647,'Widget 13647',12.67,False
13648,'Widget 13648',15.0,True
13649,'Widget 13649',17.33,False
13650,'Widget 13650',19.67,True
13651,'Widget 13651',22.0,False
13652,'Widget 13652',24.33,True
13653,'Widget 13653',26.67,False
13654,'Widget 13654',29.0,True
13655,'Widget 13655',31.33,False
13656,'Widget 13656',33.67,True
13657,'Widget 13657',36.0,False
13658,'Widget 13658',38.33,True
13659,'Widget 13659',40.67,False
13660,'Widget 13660',43.0,True
13661,'Widget 13661',45.33,False
13662,'Widget 13662',47.67,True
13663,'Widget 13663',50.0,False
13664,'Widget 13664',52.33,True
13665,'Widget 13665',54.67,False
13666,'Widget 13666',57.0,True
13667,'Widget 13667',59.33,False
13668,'Widget 13668',61.67,True
13669,'Widget 13669',64.0,False
13670,'Widget 13670',66.33,True
13671,'Widget 13671',68.67,False
13672,'Widget 13672',71.0,True
13673,'Widget 13673',73.33,False
13674,'Widget 13674',75.67,True
13675,'Widget 13675',78.0,False
13676,'Widget 13676',80.33,True
13677,'Widget 13677',82.67,False
13678,'Widget 13678',85.0,True
13679,'Widget 13679',87.33,False
13680,'Widget 13680',89.67,True
13681,'Widget 13681',92.0,False
13682,'Widget 13682',94.33,True
13683,'Widget 13683',96.67,False
13684,'Widget 13684',99.0,True
13685,'Widget 13685',101.33,False
13686,'Widget 13686',103.67,True
13687,'Widget 13687',106.0,False
13688,'Widget 13688',108.33,True
13689,'Widget 13689',110.67,False
13690,'Widget 13690',113.0,True
13691,'Widget 13691',115.33,False
13692,'Widget 13692',117.67,True
13693,'Widget 13693',120.0,False
13694,'Widget 13694',122.33,True
13695,'Widget 13695',124.67,False
13696,'Widget 13696',127.0,True
13697,'Widget 13697',129.33,False
13698,'Widget 13698',131.67,True
13699,'Widget 13699',134.0,False
13700,'Widget 13700',136.33,True
13701,'Widget 13701',138.67,False
13702,'Widget 13702',141.0,True
13703,'Widget 13703',143.33,False
13704,'Widget 13704',145.67,True
13705,'Widget 13705',148.0,False
13706,'Widget 13706',150.33,True
13707,'Widget 13707',152.67,False
13708,'Widget 13708',155.0,True
13709,'Widget 13709',157.33,False
13710,'Widget 13710',159.67,True
13711,'Widget 13711',162.0,False
13712,'Widget 13712',164.33,True
13713,'Widget 13713',166.67,False
13714,'Widget 13714',169.0,True
13715,'Widget 13715',4.67,False
13716,'Widget 13716',7.0,True
13717,'Widget 13717',9.33,False
13718,'Widget 13718',11.67,True
13719,'Widget 13719',14.0,False
13720,'Widget 13720',16.33,True
13721,'Widget 13721',18.67,False
13722,'Widget 13722',21.0,True
13723,'Widget 13723',23.33,False
13724,'Widget 13724',25.67,True
13725,'Widget 13725',28.0,False
13726,'Widget 13726',30.33,True
13727,'Widget 13727',32.67,False
13728,'Widget 13728',35.0,True
13729,'Widget 13729',37.33,False
13730,'Widget 13730',39.67,True
13731,'Widget 13731',42.0,False
13732,'Widget 13732',44.33,True
13733,'Widget 13733',46.67,False
13734,'Widget 13734',49.0,True
13735,'Widget 13735',51.33,False
13736,'Widget 13736',53.67,True
13737,'Widget 13737',56.0,False
13738,'Widget 13738',58.33,True
13739,'Widget 13739',60.67,False
13740,'Widget 13740',63.0,True
13741,'Widget 13741',65.33,False
13742,'Widget 13742',67.67,True
13743,'Widget 13743',70.0,False
13744,'Widget 13744',72.33,True
13745,'Widget 13745',74.67,False
13746,'Widget 13746',77.0,True
13747,'Widget 13747',79.33,False
13748,'Widget 13748',81.67,True
13749,'Widget 13749',84.0,False
13750,'Widget 13750',86.33,True
13751,'Widget 13751',88.67,False
13752,'Widget 13752',91.0,True
13753,'Widget 13753',93.33,False
13754,'Widget 13754',95.67,True
13755,'Widget 13755',98.0,False
13756,'Widget 13756',100.33,True
13757,'Widget 13757',102.67,False
13758,'Widget 13758',105.0,True
13759,'Widget 13759',107.33,False
13760,'Widget 13760',109.67,True
13761,'Widget 13761',112.0,False
13762,'Widget 13762',114.33,True
13763,'Widget 13763',116.67,False
13764,'Widget 13764',119.0,True
13765,'Widget 13765',121.33,False
13766,'Widget 13766',123.67,True
13767,'Widget 13767',126.0,False
13768,'Widget 13768',128.33,True
13769,'Widget 13769',130.67,False
13770,'Widget 13770',133.0,True
13771,'Widget 13771',135.33,False
13772,'Widget 13772',137.67,True
13773,'Widget 13773',140.0,False
13774,'Widget 13774',142.33,True
13775,'Widget 13775',144.67,False
13776,'Widget 13776',147.0,True
13777,'Widget 13777',149.33,False
13778,'Widget 13778',151.67,True
13779,'Widget 13779',154.0,False
13780,'Widget 13780',156.33,True
13781,'Widget 13781',158.67,False
13782,'Widget 13782',161.0,True
13783,'Widget 13783',163.33,False
13784,'Widget 13784',165.67,True
13785,'Widget 13785',168.0,False
13786,'Widget 13786',3.67,True
13787,'Widget 13787',6.0,False
13788,'Widget 13788',8.33,True
13789,'Widget 13789',10.67,False
13790,'Widget 13790',13.0,True
13791,'Widget 13791',15.33,False
13792,'Widget 13792',17.67,True
13793,'Widget 13793',20.0,False
13794,'Widget 13794',22.33,True
13795,'Widget 13795',24.67,False
13796,'Widget 13796',27.0,True
13797,'Widget 13797',29.33,False
13798,'Widget 13798',31.67,True
13799,'Widget 13799',34.0,False
13800,'Widget 13800',36.33,True
13801,'Widget 13801',38.67,False
13802,'Widget 13802',41.0,True
13803,'Widget 13803',43.33,False
13804,'Widget 13804',45.67,True
13805,'Widget 13805',48.0,False
13806,'Widget 13806',50.33,True
13807,'Widget 13807',52.67,False
13808,'Widget 13808',55.0,True
13809,'Widget 13809',57.33,False
13810,'Widget 13810',59.67,True
13811,'Widget 13811',62.0,False
13812,'Widget 13812',64.33,True
13813,'Widget 13813',66.67,False
13814,'Widget 13814',69.0,True
13815,'Widget 13815',71.33,False
13816,'Widget 13816',73.67,True
13817,'Widget 13817',76.0,False
13818,'Widget 13818',78.33,True
13819,'Widget 13819',80.67,False
13820,'Widget 13820',83.0,True
13821,'Widget 13821',85.33,False
13822,'Widget 13822',87.67,True
13823,'Widget 13823',90.0,False
13824,'Widget 13824',92.33,True
13825,'Widget 13825',94.67,False
13826,'Widget 13826',97.0,True
13827,'Widget 13827',99.33,False
13828,'Widget 13828',101.67,True
13829,'Widget 13829',104.0,False
13830,'Widget 13830',106.33,True
13831,'Widget 13831',108.67,False
13832,'Widget 13832',111.0,True
13833,'Widget 13833',113.33,False
13834,'Widget 13834',115.67,True
13835,'Widget 13835',118.0,False
13836,'Widget 13836',120.33,True
13837,'Widget 13837',122.67,False
13838,'Widget 13838',125.0,True
13839,'Widget 13839',127.33,False
13840,'Widget 13840',129.67,True
13841,'Widget 13841',132.0,False
13842,'Widget 13842',134.33,True
13843,'Widget 13843',136.67,False
13844,'Widget 13844',139.0,True
13845,'Widget 13845',141.33,False
13846,'Widget 13846',143.67,True
13847,'Widget 13847',146.0,False
13848,'Widget 13848',148.33,True
13849,'Widget 13849',150.67,False
13850,'Widget 13850',153.0,True
13851,'Widget 13851',155.33,False
13852,'Widget 13852',157.67,True
13853,'Widget 13853',160.0,False
13854,'Widget 13854',162.33,True
13855,'Widget 13855',164.67,False
13856,'Widget 13856',167.0,True
13857,'Widget 13857',169.33,False
13858,'Widget 13858',5.0,True
13859,'Widget 13859',7.33,False
13860,'Widget 13860',9.67,True
13861,'Widget 13861',12.0,False
13862,'Widget 13862',14.33,True
13863,'Widget 13863',16.67,False
13864,'Widget 13864',19.0,True
13865,'Widget 13865',21.33,False
13866,'Widget 13866',23.67,True
13867,'Widget 13867',26.0,False
13868,'Widget 13868',28.33,True
13869,'Widget 13869',30.67,False
13870,'Widget 13870',33.0,True
13871,'Widget 13871',35.33,False
13872,'Widget 13872',37.67,True
13873,'Widget 13873',40.0,False
13874,'Widget 13874',42.33,True
13875,'Widget 13875',44.67,False
13876,'Widget 13876',47.0,True
13877,'Widget 13877',49.33,False
13878,'Widget 13878',51.67,True
13879,'Widget 13879',54.0,False
13880,'Widget 13880',56.33,True
13881,'Widget 13881',58.67,False
13882,'Widget 13882',61.0,True
13883,'Widget 13883',63.33,False
13884,'Widget 13884',65.67,True
13885,'Widget 13885',68.0,False
13886,'Widget 13886',70.33,True
13887,'Widget 13887',72.67,False
13888,'Widget 13888',75.0,True
13889,'Widget 13889',77.33,False
13890,'Widget 13890',79.67,True
13891,'Widget 13891',82.0,False
13892,'Widget 13892',84.33,True
13893,'Widget 13893',86.67,False
13894,'Widget 13894',89.0,True
13895,'Widget 13895',91.33,False
13896,'Widget 13896',93.67,True
13897,'Widget 13897',96.0,False
13898,'Widget 13898',98.33,True
13899,'Widget 13899',100.67,False
13900,'Widget 13900',103.0,True
13901,'Widget 13901',105.33,False
13902,'Widget 13902',107.67,True
13903,'Widget 13903',110.0,False
13904,'Widget 13904',112.33,True
13905,'Widget 13905',114.67,False
13906,'Widget 13906',117.0,True
13907,'Widget 13907',119.33,False
13908,'Widget 13908',121.67,True
13909,'Widget 13909',124.0,False
13910,'Widget 13910',126.33,True
13911,'Widget 13911',128.67,False
13912,'Widget 13912',131.0,True
13913,'Widget 13913',133.33,False
13914,'Widget 13914',135.67,True
13915,'Widget 13915',138.0,False
13916,'Widget 13916',140.33,True
13917,'Widget 13917',142.67,False
13918,'Widget 13918',145.0,True
13919,'Widget 13919',147.33,False
13920,'Widget 13920',149.67,True
13921,'Widget 13921',152.0,False
13922,'Widget 13922',154.33,True
13923,'Widget 13923',156.67,False
13924,'Widget 13924',159.0,True
13925,'Widget 13925',161.33,False
13926,'Widget 13926',163.67,True
13927,'Widget 13927',166.0,False
13928,'Widget 13928',168.33,True
13929,'Widget 13929',4.0,False
13930,'Widget 13930',6.33,True
13931,'Widget 13931',8.67,False
13932,'Widget 13932',11.0,True
13933,'Widget 13933',13.33,False
13934,'Widget 13934',15.67,True
13935,'Widget 13935',18.0,False
13936,'Widget 13936',20.33,True
13937,'Widget 13937',22.67,False
13938,'Widget 13938',25.0,True
13939,'Widget 13939',27.33,False
13940,'Widget 13940',29.67,True
13941,'Widget 13941',32.0,False
13942,'Widget 13942',34.33,True
13943,'Widget 13943',36.67,False
13944,'Widget 13944',39.0,True
13945,'Widget 13945',41.33,False
13946,'Widget 13946',43.67,True
13947,'Widget 13947',46.0,False
13948,'Widget 13948',48.33,True
13949,'Widget 13949',50.67,False
13950,'Widget 13950',53.0,True
13951,'Widget 13951',55.33,False
13952,'Widget 13952',57.67,True
13953,'Widget 13953',60.0,False
13954,'Widget 13954',62.33,True
13955,'Widget 13955',64.67,False
13956,'Widget 13956',67.0,True
13957,'Widget 13957',69.33,False
13958,'Widget 13958',71.67,True
13959,'Widget 13959',74.0,False
13960,'Widget 13960',76.33,True
13961,'Widget 13961',78.67,False
13962,'Widget 13962',81.0,True
13963,'Widget 13963',83.33,False
13964,'Widget 13964',85.67,True
13965,'Widget 13965',88.0,False
13966,'Widget 13966',90.33,True
13967,'Widget 13967',92.67,False
13968,'Widget 13968',95.0,True
13969,'Widget 13969',97.33,False
13970,'Widget 13970',99.67,True
13971,'Widget 13971',102.0,False
13972,'Widget 13972',104.33,True
13973,'Widget 13973',106.67,False
13974,'Widget 13974',109.0,True
13975,'Widget 13975',111.33,False
13976,'Widget 13976',113.67,True
13977,'Widget 13977',116.0,False
13978,'Widget 13978',118.33,True
13979,'Widget 13979',120.67,False
13980,'Widget 13980',123.0,True
13981,'Widget 13981',125.33,False
13982,'Widget 13982',127.67,True
13983,'Widget 13983',130.0,False
13984,'Widget 13984',132.33,True
13985,'Widget 13985',134.67,False
13986,'Widget 13986',137.0,True
13987,'Widget 13987',139.33,False
13988,'Widget 13988',141.67,True
13989,'Widget 13989',144.0,False
13990,'Widget 13990',146.33,True
13991,'Widget 13991',148.67,False
13992,'Widget 13992',151.0,True
13993,'Widget 13993',153.33,False
13994,'Widget 13994',155.67,True
13995,'Widget 13995',158.0,False
13996,'Widget 13996',160.33,True
13997,'Widget 13997',162.67,False
13998,'Widget 13998',165.0,True
13999,'Widget 13999',167.33,False
14000,'Widget 14000',3.0,True
14001,'Widget 14001',5.33,False
14002,'Widget 14002',7.67,True
14003,'Widget 14003',10.0,False
14004,'Widget 14004',12.33,True
14005,'Widget 14005',14.67,False
14006,'Widget 14006',17.0,True
14007,'Widget 14007',19.33,False
14008,'Widget 14008',21.67,True
14009,'Widget 14009',24.0,False
14010,'Widget 14010',26.33,True
14011,'Widget 14011',28.67,False
14012,'Widget 14012',31.0,True
14013,'Widget 14013',33.33,False
14014,'Widget 14014',35.67,True
14015,'Widget 14015',38.0,False
14016,'Widget 14016',40.33,True
14017,'Widget 14017',42.67,False
14018,'Widget 14018',45.0,True
14019,'Widget 14019',47.33,False
14020,'Widget 14020',49.67,True
14021,'Widget 14021',52.0,False
14022,'Widget 14022',54.33,True
14023,'Widget 14023',56.67,False
14024,'Widget 14024',59.0,True
14025,'Widget 14025',61.33,False
14026,'Widget 14026',63.67,True
14027,'Widget 14027',66.0,False
14028,'Widget 14028',68.33,True
14029,'Widget 14029',70.67,False
14030,'Widget 14030',73.0,True
14031,'Widget 14031',75.33,False
14032,'Widget 14032',77.67,True
14033,'Widget 14033',80.0,False
14034,'Widget 14034',82.33,True
14035,'Widget 14035',84.67,False
14036,'Widget 14036',87.0,True
14037,'Widget 14037',89.33,False
14038,'Widget 14038',91.67,True
14039,'Widget 14039',94.0,False
14040,'Widget 14040',96.33,True
14041,'Widget 14041',98.67,False
14042,'Widget 14042',101.0,True
14043,'Widget 14043',103.33,False
14044,'Widget 14044',105.67,True
14045,'Widget 14045',108.0,False
14046,'Widget 14046',110.33,True
14047,'Widget 14047',112.67,False
14048,'Widget 14048',115.0,True
14049,'Widget 14049',117.33,False
14050,'Widget 14050',119.67,True
14051,'Widget 14051',122.0,False
14052,'Widget 14052',124.33,True
14053,'Widget 14053',126.67,False
14054,'Widget 14054',129.0,True
14055,'Widget 14055',131.33,False
14056,'Widget 14056',133.67,True
14057,'Widget 14057',136.0,False
14058,'Widget 14058',138.33,True
14059,'Widget 14059',140.67,False
14060,'Widget 14060',143.0,True
14061,'Widget 14061',145.33,False
14062,'Widget 14062',147.67,True
14063,'Widget 14063',150.0,False
14064,'Widget 14064',152.33,True
14065,'Widget 14065',154.67,False
14066,'Widget 14066',157.0,True
14067,'Widget 14067',159.33,False
14068,'Widget 14068',161.67,True
14069,'Widget 14069',164.0,False
14070,'Widget 14070',166.33,True
14071,'Widget 14071',168.67,False
14072,'Widget 14072',4.33,True
14073,'Widget 14073',6.67,False
14074,'Widget 14074',9.0,True
14075,'Widget 14075',11.33,False
14076,'Widget 14076',13.67,True
14077,'Widget 14077',16.0,False
14078,'Widget 14078',18.33,True
14079,'Widget 14079',20.67,False
14080,'Widget 14080',23.0,True
14081,'Widget 14081',25.33,False
14082,'Widget 14082',27.67,True
14083,'Widget 14083',30.0,False
14084,'Widget 14084',32.33,True
14085,'Widget 14085',34.67,False
14086,'Widget 14086',37.0,True
14087,'Widget 14087',39.33,False
14088,'Widget 14088',41.67,True
14089,'Widget 14089',44.0,False
14090,'Widget 14090',46.33,True
14091,'Widget 14091',48.67,False
14092,'Widget 14092',51.0,True
14093,'Widget 14093',53.33,False
14094,'Widget 14094',55.67,True
14095,'Widget 14095',58.0,False
14096,'Widget 14096',60.33,True
14097,'Widget 14097',62.67,False
14098,'Widget 14098',65.0,True
14099,'Widget 14099',67.33,False
14100,'Widget 14100',69.67,True
14101,'Widget 14101',72.0,False
14102,'Widget 14102',74.33,True
14103,'Widget 14103',76.67,False
14104,'Widget 14104',79.0,True
14105,'Widget 14105',81.33,False
14106,'Widget 14106',83.67,True
14107,'Widget 14107',86.0,False
14108,'Widget 14108',88.33,True
14109,'Widget 14109',90.67,False
14110,'Widget 14110',93.0,True
14111,'Widget 14111',95.33,False
14112,'Widget 14112',97.67,True
14113,'Widget 14113',100.0,False
14114,'Widget 14114',102.33,True
14115,'Widget 14115',104.67,False
14116,'Widget 14116',107.0,True
14117,'Widget 14117',109.33,False
14118,'Widget 14118',111.67,True
14119,'Widget 14119',114.0,False
14120,'Widget 14120',116.33,True
14121,'Widget 14121',118.67,False
14122,'Widget 14122',121.0,True
14123,'Widget 14123',123.33,False
14124,'Widget 14124',125.67,True
14125,'Widget 14125',128.0,False
14126,'Widget 14126',130.33,True
14127,'Widget 14127',132.67,False
14128,'Widget 14128',135.0,True
14129,'Widget 14129',137.33,False
14130,'Widget 14130',139.67,True
14131,'Widget 14131',142.0,False
14132,'Widget 14132',144.33,True
14133,'Widget 14133',146.67,False
14134,'Widget 14134',149.0,True
14135,'Widget 14135',151.33,False
14136,'Widget 14136',153.67,True
14137,'Widget 14137',156.0,False
14138,'Widget 14138',158.33,True
14139,'Widget 14139',160.67,False
14140,'Widget 14140',163.0,True
14141,'Widget 14141',165.33,False
14142,'Widget 14142',167.67,True
14143,'Widget 14143',3.33,False
14144,'Widget 14144',5.67,True
14145,'Widget 14145',8.0,False
14146,'Widget 14146',10.33,True
14147,'Widget 14147',12.67,False
14148,'Widget 14148',15.0,True
14149,'Widget 14149',17.33,False
14150,'Widget 14150',19.67,True
14151,'Widget 14151',22.0,False
14152,'Widget 14152',24.33,True
14153,'Widget 14153',26.67,False
14154,'Widget 14154',29.0,True
14155,'Widget 14155',31.33,False
14156,'Widget 14156',33.67,True
14157,'Widget 14157',36.0,False
14158,'Widget 14158',38.33,True
14159,'Widget 14159',40.67,False
14160,'Widget 14160',43.0,True
14161,'Widget 14161',45.33,False
14162,'Widget 14162',47.67,True
14163,'Widget 14163',50.0,False
14164,'Widget 14164',52.33,True
14165,'Widget 14165',54.67,False
14166,'Widget 14166',57.0,True
14167,'Widget 14167',59.33,False
14168,'Widget 14168',61.67,True
14169,'Widget 14169',64.0,False
14170,'Widget 14170',66.33,True
14171,'Widget 14171',68.67,False
14172,'Widget 14172',71.0,True
14173,'Widget 14173',73.33,False
14174,'Widget 14174',75.67,True
14175,'Widget 14175',78.0,False
14176,'Widget 14176',80.33,True
14177,'Widget 14177',82.67,False
14178,'Widget 14178',85.0,True
14179,'Widget 14179',87.33,False
14180,'Widget 14180',89.67,True
14181,'Widget 14181',92.0,False
14182,'Widget 14182',94.33,True
14183,'Widget 14183',96.67,False
14184,'Widget 14184',99.0,True
14185,'Widget 14185',101.33,False
14186,'Widget 14186',103.67,True
14187,'Widget 14187',106.0,False
14188,'Widget 14188',108.33,True
14189,'Widget 14189',110.67,False
14190,'Widget 14190',113.0,True
14191,'Widget 14191',115.33,False
14192,'Widget 14192',117.67,True
14193,'Widget 14193',120.0,False
14194,'Widget 14194',122.33,True
14195,'Widget 14195',124.67,False
14196,'Widget 14196',127.0,True
14197,'Widget 14197',129.33,False
14198,'Widget 14198',131.67,True
14199,'Widget 14199',134.0,False
14200,'Widget 14200',136.33,True
14201,'Widget 14201',138.67,False
14202,'Widget 14202',141.0,True
14203,'Widget 14203',143.33,False
14204,'Widget 14204',145.67,True
14205,'Widget 14205',148.0,False
14206,'Widget 14206',150.33,True
14207,'Widget 14207',152.67,False
14208,'Widget 14208',155.0,True
14209,'Widget 14209',157.33,False
14210,'Widget 14210',159.67,True
14211,'Widget 14211',162.0,False
14212,'Widget 14212',164.33,True
14213,'Widget 14213',166.67,False
14214,'Widget 14214',169.0,True
14215,'Widget 14215',4.67,False
14216,'Widget 14216',7.0,True
14217,'Widget 14217',9.33,False
14218,'Widget 14218',11.67,True
14219,'Widget 14219',14.0,False
14220,'Widget 14220',16.33,True
14221,'Widget 14221',18.67,False
14222,'Widget 14222',21.0,True
14223,'Widget 14223',23.33,False
14224,'Widget 14224',25.67,True
14225,'Widget 14225',28.0,False
14226,'Widget 14226',30.33,True
14227,'Widget 14227',32.67,False
14228,'Widget 14228',35.0,True
14229,'Widget 14229',37.33,False
14230,'Widget 14230',39.67,True
14231,'Widget 14231',42.0,False
14232,'Widget 14232',44.33,True
14233,'Widget 14233',46.67,False
14234,'Widget 14234',49.0,True
14235,'Widget 14235',51.33,False
14236,'Widget 14236',53.67,True
14237,'Widget 14237',56.0,False
14238,'Widget 14238',58.33,True
14239,'Widget 14239',60.67,False
14240,'Widget 14240',63.0,True
14241,'Widget 14241',65.33,False
14242,'Widget 14242',67.67,True
14243,'Widget 14243',70.0,False
14244,'Widget 14244',72.33,True
14245,'Widget 14245',74.67,False
14246,'Widget 14246',77.0,True
14247,'Widget 14247',79.33,False
14248,'Widget 14248',81.67,True
14249,'Widget 14249',84.0,False
14250,'Widget 14250',86.33,True
14251,'Widget 14251',88.67,False
14252,'Widget 14252',91.0,True
14253,'Widget 14253',93.33,False
14254,'Widget 14254',95.67,True
14255,'Widget 14255',98.0,False
14256,'Widget 14256',100.33,True
14257,'Widget 14257',102.67,False
14258,'Widget 14258',105.0,True
14259,'Widget 14259',107.33,False
14260,'Widget 14260',109.67,True
14261,'Widget 14261',112.0,False
14262,'Widget 14262',114.33,True
14263,'Widget 14263',116.67,False
14264,'Widget 14264',119.0,True
14265,'Widget 14265',121.33,False
14266,'Widget 14266',123.67,True
14267,'Widget 14267',126.0,False
14268,'Widget 14268',128.33,True
14269,'Widget 14269',130.67,False
14270,'Widget 14270',133.0,True
14271,'Widget 14271',135.33,False
14272,'Widget 14272',137.67,True
14273,'Widget 14273',140.0,False
14274,'Widget 14274',142.33,True
14275,'Widget 14275',144.67,False
14276,'Widget 14276',147.0,True
14277,'Widget 14277',149.33,False
14278,'Widget 14278',151.67,True
14279,'Widget 14279',154.0,False
14280,'Widget 14280',156.33,True
14281,'Widget 14281',158.67,False
14282,'Widget 14282',161.0,True
14283,'Widget 14283',163.33,False
14284,'Widget 14284',165.67,True
14285,'Widget 14285',168.0,False
14286,'Widget 14286',3.67,True
14287,'Widget 14287',6.0,False
14288,'Widget 14288',8.33,True
14289,'Widget 14289',10.67,False
14290,'Widget 14290',13.0,True
14291,'Widget 14291',15.33,False
14292,'Widget 14292',17.67,True
14293,'Widget 14293',20.0,False
14294,'Widget 14294',22.33,True
14295,'Widget 14295',24.67,False
14296,'Widget 14296',27.0,True
14297,'Widget 14297',29.33,False
14298,'Widget 14298',31.67,True
14299,'Widget 14299',34.0,False
14300,'Widget 14300',36.33,True
14301,'Widget 14301',38.67,False
14302,'Widget 14302',41.0,True
14303,'Widget 14303',43.33,False
14304,'Widget 14304',45.67,True
14305,'Widget 14305',48.0,False
14306,'Widget 14306',50.33,True
14307,'Widget 14307',52.67,False
14308,'Widget 14308',55.0,True
14309,'Widget 14309',57.33,False
14310,'Widget 14310',59.67,True
14311,'Widget 14311',62.0,False
14312,'Widget 14312',64.33,True
14313,'Widget 14313',66.67,False
14314,'Widget 14314',69.0,True
14315,'Widget 14315',71.33,False
14316,'Widget 14316',73.67,True
14317,'Widget 14317',76.0,False
14318,'Widget 14318',78.33,True
14319,'Widget 14319',80.67,False
14320,'Widget 14320',83.0,True
14321,'Widget 14321',85.33,False
14322,'Widget 14322',87.67,True
14323,'Widget 14323',90.0,False
14324,'Widget 14324',92.33,True
14325,'Widget 14325',94.67,False
14326,'Widget 14326',97.0,True
14327,'Widget 14327',99.33,False
14328,'Widget 14328',101.67,True
14329,'Widget 14329',104.0,False
14330,'Widget 14330',106.33,True
14331,'Widget 14331',108.67,False
14332,'Widget 14332',111.0,True
14333,'Widget 14333',113.33,False
14334,'Widget 14334',115.67,True
14335,'Widget 14335',118.0,False
14336,'Widget 14336',120.33,True
14337,'Widget 14337',122.67,False
14338,'Widget 14338',125.0,True
14339,'Widget 14339',127.33,False
14340,'Widget 14340',129.67,True
14341,'Widget 14341',132.0,False
14342,'Widget 14342',134.33,True
14343,'Widget 14343',136.67,False
14344,'Widget 14344',139.0,True
14345,'Widget 14345',141.33,False
14346,'Widget 14346',143.67,True
14347,'Widget 14347',146.0,False
14348,'Widget 14348',148.33,True
14349,'Widget 14349',150.67,False
14350,'Widget 14350',153.0,True
14351,'Widget 14351',155.33,False
14352,'Widget 14352',157.67,True
14353,'Widget 14353',160.0,False
14354,'Widget 14354',162.33,True
14355,'Widget 14355',164.67,False
14356,'Widget 14356',167.0,True
14357,'Widget 14357',169.33,False
14358,'Widget 14358',5.0,True
14359,'Widget 14359',7.33,False
14360,'Widget 14360',9.67,True
14361,'Widget 14361',12.0,False
14362,'Widget 14362',14.33,True
14363,'Widget 14363',16.67,False
14364,'Widget 14364',19.0,True
14365,'Widget 14365',21.33,False
14366,'Widget 14366',23.67,True
14367,'Widget 14367',26.0,False
14368,'Widget 14368',28.33,True
14369,'Widget 14369',30.67,False
14370,'Widget 14370',33.0,True
14371,'Widget 14371',35.33,False
14372,'Widget 14372',37.67,True
14373,'Widget 14373',40.0,False
14374,'Widget 14374',42.33,True
14375,'Widget 14375',44.67,False
14376,'Widget 14376',47.0,True
14377,'Widget 14377',49.33,False
14378,'Widget 14378',51.67,True
14379,'Widget 14379',54.0,False
14380,'Widget 14380',56.33,True
14381,'Widget 14381',58.67,False
14382,'Widget 14382',61.0,True
14383,'Widget 14383',63.33,False
14384,'Widget 14384',65.67,True
14385,'Widget 14385',68.0,False
14386,'Widget 14386',70.33,True
14387,'Widget 14387',72.67,False
14388,'Widget 14388',75.0,True
14389,'Widget 14389',77.33,False
14390,'Widget 14390',79.67,True
14391,'Widget 14391',82.0,False
14392,'Widget 14392',84.33,True
14393,'Widget 14393',86.67,False
14394,'Widget 14394',89.0,True
14395,'Widget 14395',91.33,False
14396,'Widget 14396',93.67,True
14397,'Widget 14397',96.0,False
14398,'Widget 14398',98.33,True
14399,'Widget 14399',100.67,False
14400,'Widget 14400',103.0,True
14401,'Widget 14401',105.33,False
14402,'Widget 14402',107.67,True
14403,'Widget 14403',110.0,False
14404,'Widget 14404',112.33,True
14405,'Widget 14405',114.67,False
14406,'Widget 14406',117.0,True
14407,'Widget 14407',119.33,False
14408,'Widget 14408',121.67,True
14409,'Widget 14409',124.0,False
14410,'Widget 14410',126.33,True
14411,'Widget 14411',128.67,False
14412,'Widget 14412',131.0,True
14413,'Widget 14413',133.33,False
14414,'Widget 14414',135.67,True
14415,'Widget 14415',138.0,False
14416,'Widget 14416',140.33,True
14417,'Widget 14417',142.67,False
14418,'Widget 14418',145.0,True
14419,'Widget 14419',147.33,False
14420,'Widget 14420',149.67,True
14421,'Widget 14421',152.0,False
14422,'Widget 14422',154.33,True
14423,'Widget 14423',156.67,False
14424,'Widget 14424',159.0,True
14425,'Widget 14425',161.33,False
14426,'Widget 14426',163.67,True
14427,'Widget 14427',166.0,False
14428,'Widget 14428',168.33,True
14429,'Widget 14429',4.0,False
14430,'Widget 14430',6.33,True
14431,'Widget 14431',8.67,False
14432,'Widget 14432',11.0,True
14433,'Widget 14433',13.33,False
14434,'Widget 14434',15.67,True
14435,'Widget 14435',18.0,False
14436,'Widget 14436',20.33,True
14437,'Widget 14437',22.67,False
14438,'Widget 14438',25.0,True
14439,'Widget 14439',27.33,False
14440,'Widget 14440',29.67,True
14441,'Widget 14441',32.0,False
14442,'Widget 14442',34.33,True
14443,'Widget 14443',36.67,False
14444,'Widget 14444',39.0,True
14445,'Widget 14445',41.33,False
14446,'Widget 14446',43.67,True
14447,'Widget 14447',46.0,False
14448,'Widget 14448',48.33,True
14449,'Widget 14449',50.67,False
14450,'Widget 14450',53.0,True
14451,'Widget 14451',55.33,False
14452,'Widget 14452',57.67,True
14453,'Widget 14453',60.0,False
14454,'Widget 14454',62.33,True
14455,'Widget 14455',64.67,False
14456,'Widget 14456',67.0,True
14457,'Widget 14457',69.33,False
14458,'Widget 14458',71.67,True
14459,'Widget 14459',74.0,False
14460,'Widget 14460',76.33,True
14461,'Widget 14461',78.67,False
14462,'Widget 14462',81.0,True
14463,'Widget 14463',83.33,False
14464,'Widget 14464',85.67,True
14465,'Widget 14465',88.0,False
14466,'Widget 14466',90.33,True
14467,'Widget 14467',92.67,False
14468,'Widget 14468',95.0,True
14469,'Widget 14469',97.33,False
14470,'Widget 14470',99.67,True
14471,'Widget 14471',102.0,False
14472,'Widget 14472',104.33,True
14473,'Widget 14473',106.67,False
14474,'Widget 14474',109.0,True
14475,'Widget 14475',111.33,False
14476,'Widget 14476',113.67,True
14477,'Widget 14477',116.0,False
14478,'Widget 14478',118.33,True
14479,'Widget 14479',120.67,False
14480,'Widget 14480',123.0,True
14481,'Widget 14481',125.33,False
14482,'Widget 14482',127.67,True
14483,'Widget 14483',130.0,False
14484,'Widget 14484',132.33,True
14485,'Widget 14485',134.67,False
14486,'Widget 14486',137.0,True
14487,'Widget 14487',139.33,False
14488,'Widget 14488',141.67,True
14489,'Widget 14489',144.0,False
14490,'Widget 14490',146.33,True
14491,'Widget 14491',148.67,False
14492,'Widget 14492',151.0,True
14493,'Widget 14493',153.33,False
14494,'Widget 14494',155.67,True
14495,'Widget 14495',158.0,False
14496,'Widget 14496',160.33,True
14497,'Widget 14497',162.67,False
14498,'Widget 14498',165.0,True
14499,'Widget 14499',167.33,False
14500,'Widget 14500',3.0,True
14501,'Widget 14501',5.33,False
14502,'Widget 14502',7.67,True
14503,'Widget 14503',10.0,False
14504,'Widget 14504',12.33,True
14505,'Widget 14505',14.67,False
14506,'Widget 14506',17.0,True
14507,'Widget 14507',19.33,False
14508,'Widget 14508',21.67,True
14509,'Widget 14509',24.0,False
14510,'Widget 14510',26.33,True
14511,'Widget 14511',28.67,False
14512,'Widget 14512',31.0,True
14513,'Widget 14513',33.33,False
14514,'Widget 14514',35.67,True
14515,'Widget 14515',38.0,False
14516,'Widget 14516',40.33,True
14517,'Widget 14517',42.67,False
14518,'Widget 14518',45.0,True
14519,'Widget 14519',47.33,False
14520,'Widget 14520',49.67,True
14521,'Widget 14521',52.0,False
14522,'Widget 14522',54.33,True
14523,'Widget 14523',56.67,False
14524,'Widget 14524',59.0,True
14525,'Widget 14525',61.33,False
14526,'Widget 14526',63.67,True
14527,'Widget 14527',66.0,False
14528,'Widget 14528',68.33,True
14529,'Widget 14529',70.67,False
14530,'Widget 14530',73.0,True
14531,'Widget 14531',75.33,False
14532,'Widget 14532',77.67,True
14533,'Widget 14533',80.0,False
14534,'Widget 14534',82.33,True
14535,'Widget 14535',84.67,False
14536,'Widget 14536',87.0,True
14537,'Widget 14537',89.33,False
14538,'Widget 14538',91.67,True
14539,'Widget 14539',94.0,False
14540,'Widget 14540',96.33,True
14541,'Widget 14541',98.67,False
14542,'Widget 14542',101.0,True
14543,'Widget 14543',103.33,False
14544,'Widget 14544',105.67,True
14545,'Widget 14545',108.0,False
14546,'Widget 14546',110.33,True
14547,'Widget 14547',112.67,False
14548,'Widget 14548',115.0,True
14549,'Widget 14549',117.33,False
14550,'Widget 14550',119.67,True
14551,'Widget 14551',122.0,False
14552,'Widget 14552',124.33,True
14553,'Widget 14553',126.67,False
14554,'Widget 14554',129.0,True
14555,'Widget 14555',131.33,False
14556,'Widget 14556',133.67,True
14557,'Widget 14557',136.0,False
14558,'Widget 14558',138.33,True
14559,'Widget 14559',140.67,False
14560,'Widget 14560',143.0,True
14561,'Widget 14561',145.33,False
14562,'Widget 14562',147.67,True
14563,'Widget 14563',150.0,False
14564,'Widget 14564',152.33,True
14565,'Widget 14565',154.67,False
14566,'Widget 14566',157.0,True
14567,'Widget 14567',159.33,False
14568,'Widget 14568',161.67,True
14569,'Widget 14569',164.0,False
14570,'Widget 14570',166.33,True
14571,'Widget 14571',168.67,False
14572,'Widget 14572',4.33,True
14573,'Widget 14573',6.67,False
14574,'Widget 14574',9.0,True
14575,'Widget 14575',11.33,False
14576,'Widget 14576',13.67,True
14577,'Widget 14577',16.0,False
14578,'Widget 14578',18.33,True
14579,'Widget 14579',20.67,False
14580,'Widget 14580',23.0,True
14581,'Widget 14581',25.33,False
14582,'Widget 14582',27.67,True
14583,'Widget 14583',30.0,False
14584,'Widget 14584',32.33,True
14585,'Widget 14585',34.67,False
14586,'Widget 14586',37.0,True
14587,'Widget 14587',39.33,False
14588,'Widget 14588',41.67,True
14589,'Widget 14589',44.0,False
14590,'Widget 14590',46.33,True
14591,'Widget 14591',48.67,False
14592,'Widget 14592',51.0,True
14593,'Widget 14593',53.33,False
14594,'Widget 14594',55.67,True
14595,'Widget 14595',58.0,False
14596,'Widget 14596',60.33,True
14597,'Widget 14597',62.67,False
14598,'Widget 14598',65.0,True
14599,'Widget 14599',67.33,False
14600,'Widget 14600',69.67,True
14601,'Widget 14601',72.0,False
14602,'Widget 14602',74.33,True
14603,'Widget 14603',76.67,False
14604,'Widget 14604',79.0,True
14605,'Widget 14605',81.33,False
14606,'Widget 14606',83.67,True
14607,'Widget 14607',86.0,False
14608,'Widget 14608',88.33,True
14609,'Widget 14609',90.67,False
14610,'Widget 14610',93.0,True
14611,'Widget 14611',95.33,False
14612,'Widget 14612',97.67,True
14613,'Widget 14613',100.0,False
14614,'Widget 14614',102.33,True
14615,'Widget 14615',104.67,False
14616,'Widget 14616',107.0,True
14617,'Widget 14617',109.33,False
14618,'Widget 14618',111.67,True
14619,'Widget 14619',114.0,False
14620,'Widget 14620',116.33,True
14621,'Widget 14621',118.67,False
14622,'Widget 14622',121.0,True
14623,'Widget 14623',123.33,False
14624,'Widget 14624',125.67,True
14625,'Widget 14625',128.0,False
14626,'Widget 14626',130.33,True
14627,'Widget 14627',132.67,False
14628,'Widget 14628',135.0,True
14629,'Widget 14629',137.33,False
14630,'Widget 14630',139.67,True
14631,'Widget 14631',142.0,False
14632,'Widget 14632',144.33,True
14633,'Widget 14633',146.67,False
14634,'Widget 14634',149.0,True
14635,'Widget 14635',151.33,False
14636,'Widget 14636',153.67,True
14637,'Widget 14637',156.0,False
14638,'Widget 14638',158.33,True
14639,'Widget 14639',160.67,False
14640,'Widget 14640',163.0,True
14641,'Widget 14641',165.33,False
14642,'Widget 14642',167.67,True
14643,'Widget 14643',3.33,False
14644,'Widget 14644',5.67,True
14645,'Widget 14645',8.0,False
14646,'Widget 14646',10.33,True
14647,'Widget 14647',12.67,False
14648,'Widget 14648',15.0,True
14649,'Widget 14649',17.33,False
14650,'Widget 14650',19.67,True
14651,'Widget 14651',22.0,False
14652,'Widget 14652',24.33,True
14653,'Widget 14653',26.67,False
14654,'Widget 14654',29.0,True
14655,'Widget 14655',31.33,False
14656,'Widget 14656',33.67,True
14657,'Widget 14657',36.0,False
14658,'Widget 14658',38.33,True
14659,'Widget 14659',40.67,False
14660,'Widget 14660',43.0,True
14661,'Widget 14661',45.33,False
14662,'Widget 14662',47.67,True
14663,'Widget 14663',50.0,False
14664,'Widget 14664',52.33,True
14665,'Widget 14665',54.67,False
14666,'Widget 14666',57.0,True
14667,'Widget 14667',59.33,False
14668,'Widget 14668',61.67,True
14669,'Widget 14669',64.0,False
14670,'Widget 14670',66.33,True
14671,'Widget 14671',68.67,False
14672,'Widget 14672',71.0,True
14673,'Widget 14673',73.33,False
14674,'Widget 14674',75.67,True
14675,'Widget 14675',78.0,False
14676,'Widget 14676',80.33,True
14677,'Widget 14677',82.67,False
14678,'Widget 14678',85.0,True
14679,'Widget 14679',87.33,False
14680,'Widget 14680',89.67,True
14681,'Widget 14681',92.0,False
14682,'Widget 14682',94.33,True
14683,'Widget 14683',96.67,False
14684,'Widget 14684',99.0,True
14685,'Widget 14685',101.33,False
14686,'Widget 14686',103.67,True
14687,'Widget 14687',106.0,False
14688,'Widget 14688',108.33,True
14689,'Widget 14689',110.67,False
14690,'Widget 14690',113.0,True
14691,'Widget 14691',115.33,False
14692,'Widget 14692',117.67,True
14693,'Widget 14693',120.0,False
14694,'Widget 14694',122.33,True
14695,'Widget 14695',124.67,False
14696,'Widget 14696',127.0,True
14697,'Widget 14697',129.33,False
14698,'Widget 14698',131.67,True
14699,'Widget 14699',134.0,False
14700,'Widget 14700',136.33,True
14701,'Widget 14701',138.67,False
14702,'Widget 14702',141.0,True
14703,'Widget 14703',143.33,False
14704,'Widget 14704',145.67,True
14705,'Widget 14705',148.0,False
14706,'Widget 14706',150.33,True
14707,'Widget 14707',152.67,False
14708,'Widget 14708',155.0,True
14709,'Widget 14709',157.33,False
14710,'Widget 14710',159.67,True
14711,'Widget 14711',162.0,False
14712,'Widget 14712',164.33,True
14713,'Widget 14713',166.67,False
14714,'Widget 14714',169.0,True
14715,'Widget 14715',4.67,False
14716,'Widget 14716',7.0,True
14717,'Widget 14717',9.33,False
14718,'Widget 14718',11.67,True
14719,'Widget 14719',14.0,False
14720,'Widget 14720',16.33,True
14721,'Widget 14721',18.67,False
14722,'Widget 14722',21.0,True
14723,'Widget 14723',23.33,False
14724,'Widget 14724',25.67,True
14725,'Widget 14725',28.0,False
14726,'Widget 14726',30.33,True
14727,'Widget 14727',32.67,False
14728,'Widget 14728',35.0,True
14729,'Widget 14729',37.33,False
14730,'Widget 14730',39.67,True
14731,'Widget 14731',42.0,False
14732,'Widget 14732',44.33,True
14733,'Widget 14733',46.67,False
14734,'Widget 14734',49.0,True
14735,'Widget 14735',51.33,False
14736,'Widget 14736',53.67,True
14737,'Widget 14737',56.0,False
14738,'Widget 14738',58.33,True
14739,'Widget 14739',60.67,False
14740,'Widget 14740',63.0,True
14741,'Widget 14741',65.33,False
14742,'Widget 14742',67.67,True
14743,'Widget 14743',70.0,False
14744,'Widget 14744',72.33,True
14745,'Widget 14745',74.67,False
14746,'Widget 14746',77.0,True
14747,'Widget 14747',79.33,False
14748,'Widget 14748',81.67,True
14749,'Widget 14749',84.0,False
14750,'Widget 14750',86.33,True
14751,'Widget 14751',88.67,False
14752,'Widget 14752',91.0,True
14753,'Widget 14753',93.33,False
14754,'Widget 14754',95.67,True
14755,'Widget 14755',98.0,False
14756,'Widget 14756',100.33,True
14757,'Widget 14757',102.67,False
14758,'Widget 14758',105.0,True
14759,'Widget 14759',107.33,False
14760,'Widget 14760',109.67,True
14761,'Widget 14761',112.0,False
14762,'Widget 14762',114.33,True
14763,'Widget 14763',116.67,False
14764,'Widget 14764',119.0,True
14765,'Widget 14765',121.33,False
14766,'Widget 14766',123.67,True
14767,'Widget 14767',126.0,False
14768,'Widget 14768',128.33,True
14769,'Widget 14769',130.67,False
14770,'Widget 14770',133.0,True
14771,'Widget 14771',135.33,False
14772,'Widget 14772',137.67,True
14773,'Widget 14773',140.0,False
14774,'Widget 14774',142.33,True
14775,'Widget 14775',144.67,False
14776,'Widget 14776',147.0,True
14777,'Widget 14777',149.33,False
14778,'Widget 14778',151.67,True
14779,'Widget 14779',154.0,False
14780,'Widget 14780',156.33,True
14781,'Widget 14781',158.67,False
14782,'Widget 14782',161.0,True
14783,'Widget 14783',163.33,False
14784,'Widget 14784',165.67,True
14785,'Widget 14785',168.0,False
14786,'Widget 14786',3.67,True
14787,'Widget 14787',6.0,False
14788,'Widget 14788',8.33,True
14789,'Widget 14789',10.67,False
14790,'Widget 14790',13.0,True
14791,'Widget 14791',15.33,False
14792,'Widget 14792',17.67,True
14793,'Widget 14793',20.0,False
14794,'Widget 14794',22.33,True
14795,'Widget 14795',24.67,False
14796,'Widget 14796',27.0,True
14797,'Widget 14797',29.33,False
14798,'Widget 14798',31.67,True
14799,'Widget 14799',34.0,False
14800,'Widget 14800',36.33,True
14801,'Widget 14801',38.67,False
14802,'Widget 14802',41.0,True
14803,'Widget 14803',43.33,False
14804,'Widget 14804',45.67,True
14805,'Widget 14805',48.0,False
14806,'Widget 14806',50.33,True
14807,'Widget 14807',52.67,False
14808,'Widget 14808',55.0,True
14809,'Widget 14809',57.33,False
14810,'Widget 14810',59.67,True
14811,'Widget 14811',62.0,False
14812,'Widget 14812',64.33,True
14813,'Widget 14813',66.67,False
14814,'Widget 14814',69.0,True
14815,'Widget 14815',71.33,False
14816,'Widget 14816',73.67,True
14817,'Widget 14817',76.0,False
14818,'Widget 14818',78.33,True
14819,'Widget 14819',80.67,False
14820,'Widget 14820',83.0,True
14821,'Widget 14821',85.33,False
14822,'Widget 14822',87.67,True
14823,'Widget 14823',90.0,False
14824,'Widget 14824',92.33,True
14825,'Widget 14825',94.67,False
14826,'Widget 14826',97.0,True
14827,'Widget 14827',99.33,False
14828,'Widget 14828',101.67,True
14829,'Widget 14829',104.0,False
14830,'Widget 14830',106.33,True
14831,'Widget 14831',108.67,False
14832,'Widget 14832',111.0,True
14833,'Widget 14833',113.33,False
14834,'Widget 14834',115.67,True
14835,'Widget 14835',118.0,False
14836,'Widget 14836',120.33,True
14837,'Widget 14837',122.67,False
14838,'Widget 14838',125.0,True
14839,'Widget 14839',127.33,False
14840,'Widget 14840',129.67,True
14841,'Widget 14841',132.0,False
14842,'Widget 14842',134.33,True
14843,'Widget 14843',136.67,False
14844,'Widget 14844',139.0,True
14845,'Widget 14845',141.33,False
14846,'Widget 14846',143.67,True
14847,'Widget 14847',146.0,False
14848,'Widget 14848',148.33,True
14849,'Widget 14849',150.67,False
14850,'Widget 14850',153.0,True
14851,'Widget 14851',155.33,False
14852,'Widget 14852',157.67,True
14853,'Widget 14853',160.0,False
14854,'Widget 14854',162.33,True
14855,'Widget 14855',164.67,False
14856,'Widget 14856',167.0,True
14857,'Widget 14857',169.33,False
14858,'Widget 14858',5.0,True
14859,'Widget 14859',7.33,False
14860,'Widget 14860',9.67,True
14861,'Widget 14861',12.0,False
14862,'Widget 14862',14.33,True
14863,'Widget 14863',16.67,False
14864,'Widget 14864',19.0,True
14865,'Widget 14865',21.33,False
14866,'Widget 14866',23.67,True
14867,'Widget 14867',26.0,False
14868,'Widget 14868',28.33,True
14869,'Widget 14869',30.67,False
14870,'Widget 14870',33.0,True
14871,'Widget 14871',35.33,False
14872,'Widget 14872',37.67,True
14873,'Widget 14873',40.0,False
14874,'Widget 14874',42.33,True
14875,'Widget 14875',44.67,False
14876,'Widget 14876',47.0,True
14877,'Widget 14877',49.33,False
14878,'Widget 14878',51.67,True
14879,'Widget 14879',54.0,False
14880,'Widget 14880',56.33,True
14881,'Widget 14881',58.67,False
14882,'Widget 14882',61.0,True
14883,'Widget 14883',63.33,False
14884,'Widget 14884',65.67,True
14885,'Widget 14885',68.0,False
14886,'Widget 14886',70.33,True
14887,'Widget 14887',72.67,False
14888,'Widget 14888',75.0,True
14889,'Widget 14889',77.33,False
14890,'Widget 14890',79.67,True
14891,'Widget 14891',82.0,False
14892,'Widget 14892',84.33,True
14893,'Widget 14893',86.67,False
14894,'Widget 14894',89.0,True
14895,'Widget 14895',91.33,False
14896,'Widget 14896',93.67,True
14897,'Widget 14897',96.0,False
14898,'Widget 14898',98.33,True
14899,'Widget 14899',100.67,False
14900,'Widget 14900',103.0,True
14901,'Widget 14901',105.33,False
14902,'Widget 14902',107.67,True
14903,'Widget 14903',110.0,False
14904,'Widget 14904',112.33,True
14905,'Widget 14905',114.67,False
14906,'Widget 14906',117.0,True
14907,'Widget 14907',119.33,False
14908,'Widget 14908',121.67,True
14909,'Widget 14909',124.0,False
14910,'Widget 14910',126.33,True
14911,'Widget 14911',128.67,False
14912,'Widget 14912',131.0,True
14913,'Widget 14913',133.33,False
14914,'Widget 14914',135.67,True
14915,'Widget 14915',138.0,False
14916,'Widget 14916',140.33,True
14917,'Widget 14917',142.67,False
14918,'Widget 14918',145.0,True
14919,'Widget 14919',147.33,False
14920,'Widget 14920',149.67,True
14921,'Widget 14921',152.0,False
14922,'Widget 14922',154.33,True
14923,'Widget 14923',156.67,False
14924,'Widget 14924',159.0,True
14925,'Widget 14925',161.33,False
14926,'Widget 14926',163.67,True
14927,'Widget 14927',166.0,False
14928,'Widget 14928',168.33,True
14929,'Widget 14929',4.0,False
14930,'Widget 14930',6.33,True
14931,'Widget 14931',8.67,False
14932,'Widget 14932',11.0,True
14933,'Widget 14933',13.33,False
14934,'Widget 14934',15.67,True
14935,'Widget 14935',18.0,False
14936,'Widget 14936',20.33,True
14937,'Widget 14937',22.67,False
14938,'Widget 14938',25.0,True
14939,'Widget 14939',27.33,False
14940,'Widget 14940',29.67,True
14941,'Widget 14941',32.0,False
14942,'Widget 14942',34.33,True
14943,'Widget 14943',36.67,False
14944,'Widget 14944',39.0,True
14945,'Widget 14945',41.33,False
14946,'Widget 14946',43.67,True
14947,'Widget 14947',46.0,False
14948,'Widget 14948',48.33,True
14949,'Widget 14949',50.67,False
14950,'Widget 14950',53.0,True
14951,'Widget 14951',55.33,False
14952,'Widget 14952',57.67,True
14953,'Widget 14953',60.0,False
14954,'Widget 14954',62.33,True
14955,'Widget 14955',64.67,False
14956,'Widget 14956',67.0,True
14957,'Widget 14957',69.33,False
14958,'Widget 14958',71.67,True
14959,'Widget 14959',74.0,False
14960,'Widget 14960',76.33,True
14961,'Widget 14961',78.67,False
14962,'Widget 14962',81.0,True
14963,'Widget 14963',83.33,False
14964,'Widget 14964',85.67,True
14965,'Widget 14965',88.0,False
14966,'Widget 14966',90.33,True
14967,'Widget 14967',92.67,False
14968,'Widget 14968',95.0,True
14969,'Widget 14969',97.33,False
14970,'Widget 14970',99.67,True
14971,'Widget 14971',102.0,False
14972,'Widget 14972',104.33,True
14973,'Widget 14973',106.67,False
14974,'Widget 14974',109.0,True
14975,'Widget 14975',111.33,False
14976,'Widget 14976',113.67,True
14977,'Widget 14977',116.0,False
14978,'Widget 14978',118.33,True
14979,'Widget 14979',120.67,False
14980,'Widget 14980',123.0,True
14981,'Widget 14981',125.33,False
14982,'Widget 14982',127.67,True
14983,'Widget 14983',130.0,False
14984,'Widget 14984',132.33,True
14985,'Widget 14985',134.67,False
14986,'Widget 14986',137.0,True
14987,'Widget 14987',139.33,False
14988,'Widget 14988',141.67,True
14989,'Widget 14989',144.0,False
14990,'Widget 14990',146.33,True
14991,'Widget 14991',148.67,False
14992,'Widget 14992',151.0,True
14993,'Widget 14993',153.33,False
14994,'Widget 14994',155.67,True
14995,'Widget 14995',158.0,False
14996,'Widget 14996',160.33,True
14997,'Widget 14997',162.67,False
14998,'Widget 14998',165.0,True
14999,'Widget 14999',167.33,False
15000,'Widget 15000',3.0,True
