@RELATION widgets

@ATTRIBUTE id NUMERIC
@ATTRIBUTE name STRING
@ATTRIBUTE price NUMERIC
@ATTRIBUTE in_stock {True, False}

@DATA
1,'Widget 1',5.33,False
2,'Widget 2',7.67,True
3,'Widget 3',10.0,False
4,'Widget 4',12.33,True
5,'Widget 5',14.67,False
6,'Widget 6',17.0,True
7,'Widget 7',19.33,False
8,'Widget 8',21.67,True
9,'Widget 9',24.0,False
10,'Widget 10',26.33,True
11,'Widget 11',28.67,False
12,'Widget 12',31.0,True
13,'Widget 13',33.33,False
14,'Widget 14',35.67,True
15,'Widget 15',38.0,False
16,'Widget 16',40.33,True
17,'Widget 17',42.67,False
18,'Widget 18',45.0,True
19,'Widget 19',47.33,False
20,'Widget 20',49.67,True
21,'Widget 21',52.0,False
22,'Widget 22',54.33,True
23,'Widget 23',56.67,False
24,'Widget 24',59.0,True
25,'Widget 25',61.33,False
26,'Widget 26',63.67,True
27,'Widget 27',66.0,False
28,'Widget 28',68.33,True
29,'Widget 29',70.67,False
30,'Widget 30',73.0,True
31,'Widget 31',75.33,False
32,'Widget 32',77.67,True
33,'Widget 33',80.0,False
34,'Widget 34',82.33,True
35,'Widget 35',84.67,False
36,'Widget 36',87.0,True
37,'Widget 37',89.33,False
38,'Widget 38',91.67,True
39,'Widget 39',94.0,False
40,'Widget 40',96.33,True
41,'Widget 41',98.67,False
42,'Widget 42',101.0,True
43,'Widget 43',103.33,False
44,'Widget 44',105.67,True
45,'Widget 45',108.0,False
46,'Widget 46',110.33,True
47,'Widget 47',112.67,False
48,'Widget 48',115.0,True
49,'Widget 49',117.33,False
50,'Widget 50',119.67,True
51,'Widget 51',122.0,False
52,'Widget 52',124.33,True
53,'Widget 53',126.67,False
54,'Widget 54',129.0,True
55,'Widget 55',131.33,False
56,'Widget 56',133.67,True
57,'Widget 57',136.0,False
58,'Widget 58',138.33,True
59,'Widget 59',140.67,False
60,'Widget 60',143.0,True
61,'Widget 61',145.33,False
62,'Widget 62',147.67,True
63,'Widget 63',150.0,False
64,'Widget 64',152.33,True
65,'Widget 65',154.67,False
66,'Widget 66',157.0,True
67,'Widget 67',159.33,False
68,'Widget 68',161.67,True
69,'Widget 69',164.0,False
70,'Widget 70',166.33,True
71,'Widget 71',168.67,False
72,'Widget 72',4.33,True
73,'Widget 73',6.67,False
74,'Widget 74',9.0,True
75,'Widget 75',11.33,False
76,'Widget 76',13.67,True
77,'Widget 77',16.0,False
78,'Widget 78',18.33,True
79,'Widget 79',20.67,False
80,'Widget 80',23.0,True
81,'Widget 81',25.33,False
82,'Widget 82',27.67,True
83,'Widget 83',30.0,False
84,'Widget 84',32.33,True
85,'Widget 85',34.67,False
86,'Widget 86',37.0,True
87,'Widget 87',39.33,False
88,'Widget 88',41.67,True
89,'Widget 89',44.0,False
90,'Widget 90',46.33,True
91,'Widget 91',48.67,False
92,'Widget 92',51.0,True
93,'Widget 93',53.33,False
94,'Widget 94',55.67,True
95,'Widget 95',58.0,False
96,'Widget 96',60.33,True
97,'Widget 97',62.67,False
98,'Widget 98',65.0,True
99,'Widget 99',67.33,False
100,'Widget 100',69.67,True
101,'Widget 101',72.0,False
102,'Widget 102',74.33,True
103,'Widget 103',76.67,False
104,'Widget 104',79.0,True
105,'Widget 105',81.33,False
106,'Widget 106',83.67,True
107,'Widget 107',86.0,False
108,'Widget 108',88.33,True
109,'Widget 109',90.67,False
110,'Widget 110',93.0,True
111,'Widget 111',95.33,False
112,'Widget 112',97.67,True
113,'Widget 113',100.0,False
114,'Widget 114',102.33,True
115,'Widget 115',104.67,False
116,'Widget 116',107.0,True
117,'Widget 117',109.33,False
118,'Widget 118',111.67,True
119,'Widget 119',114.0,False
120,'Widget 120',116.33,True
121,'Widget 121',118.67,False
122,'Widget 122',121.0,True
123,'Widget 123',123.33,False
124,'Widget 124',125.67,True
125,'Widget 125',128.0,False
126,'Widget 126',130.33,True
127,'Widget 127',132.67,False
128,'Widget 128',135.0,True
129,'Widget 129',137.33,False
130,'Widget 130',139.67,True
131,'Widget 131',142.0,False
132,'Widget 132',144.33,True
133,'Widget 133',146.67,False
134,'Widget 134',149.0,True
135,'Widget 135',151.33,False
136,'Widget 136',153.67,True
137,'Widget 137',156.0,False
138,'Widget 138',158.33,True
139,'Widget 139',160.67,False
140,'Widget 140',163.0,True
141,'Widget 141',165.33,False
142,'Widget 142',167.67,True
143,'Widget 143',3.33,False
144,'Widget 144',5.67,True
145,'Widget 145',8.0,False
146,'Widget 146',10.33,True
147,'Widget 147',12.67,False
148,'Widget 148',15.0,True
149,'Widget 149',17.33,False
150,'Widget 150',19.67,True
151,'Widget 151',22.0,False
152,'Widget 152',24.33,True
153,'Widget 153',26.67,False
154,'Widget 154',29.0,True
155,'Widget 155',31.33,False
156,'Widget 156',33.67,True
157,'Widget 157',36.0,False
158,'Widget 158',38.33,True
159,'Widget 159',40.67,False
160,'Widget 160',43.0,True
161,'Widget 161',45.33,False
162,'Widget 162',47.67,True
163,'Widget 163',50.0,False
164,'Widget 164',52.33,True
165,'Widget 165',54.67,False
166,'Widget 166',57.0,True
167,'Widget 167',59.33,False
168,'Widget 168',61.67,True
169,'Widget 169',64.0,False
170,'Widget 170',66.33,True
171,'Widget 171',68.67,False
172,'Widget 172',71.0,True
173,'Widget 173',73.33,False
174,'Widget 174',75.67,True
175,'Widget 175',78.0,False
176,'Widget 176',80.33,True
177,'Widget 177',82.67,False
178,'Widget 178',85.0,True
179,'Widget 179',87.33,False
180,'Widget 180',89.67,True
181,'Widget 181',92.0,False
182,'Widget 182',94.33,True
183,'Widget 183',96.67,False
184,'Widget 184',99.0,True
185,'Widget 185',101.33,False
186,'Widget 186',103.67,True
187,'Widget 187',106.0,False
188,'Widget 188',108.33,True
189,'Widget 189',110.67,False
190,'Widget 190',113.0,True
191,'Widget 191',115.33,False
192,'Widget 192',117.67,True
193,'Widget 193',120.0,False
194,'Widget 194',122.33,True
195,'Widget 195',124.67,False
196,'Widget 196',127.0,True
197,'Widget 197',129.33,False
198,'Widget 198',131.67,True
199,'Widget 199',134.0,False
200,'Widget 200',136.33,True
201,'Widget 201',138.67,False
202,'Widget 202',141.0,True
203,'Widget 203',143.33,False
204,'Widget 204',145.67,True
205,'Widget 205',148.0,False
206,'Widget 206',150.33,True
207,'Widget 207',152.67,False
208,'Widget 208',155.0,True
209,'Widget 209',157.33,False
210,'Widget 210',159.67,True
211,'Widget 211',162.0,False
212,'Widget 212',164.33,True
213,'Widget 213',166.67,False
214,'Widget 214',169.0,True
215,'Widget 215',4.67,False
216,'Widget 216',7.0,True
217,'Widget 217',9.33,False
218,'Widget 218',11.67,True
219,'Widget 219',14.0,False
220,'Widget 220',16.33,True
221,'Widget 221',18.67,False
222,'Widget 222',21.0,True
223,'Widget 223',23.33,False
224,'Widget 224',25.67,True
225,'Widget 225',28.0,False
226,'Widget 226',30.33,True
227,'Widget 227',32.67,False
228,'Widget 228',35.0,True
229,'Widget 229',37.33,False
230,'Widget 230',39.67,True
231,'Widget 231',42.0,False
232,'Widget 232',44.33,True
233,'Widget 233',46.67,False
234,'Widget 234',49.0,True
235,'Widget 235',51.33,False
236,'Widget 236',53.67,True
237,'Widget 237',56.0,False
238,'Widget 238',58.33,True
239,'Widget 239',60.67,False
240,'Widget 240',63.0,True
241,'Widget 241',65.33,False
242,'Widget 242',67.67,True
243,'Widget 243',70.0,False
244,'Widget 244',72.33,True
245,'Widget 245',74.67,False
246,'Widget 246',77.0,True
247,'Widget 247',79.33,False
248,'Widget 248',81.67,True
249,'Widget 249',84.0,False
250,'Widget 250',86.33,True
251,'Widget 251',88.67,False
252,'Widget 252',91.0,True
253,'Widget 253',93.33,False
254,'Widget 254',95.67,True
255,'Widget 255',98.0,False
256,'Widget 256',100.33,True
257,'Widget 257',102.67,False
258,'Widget 258',105.0,True
259,'Widget 259',107.33,False
260,'Widget 260',109.67,True
261,'Widget 261',112.0,False
262,'Widget 262',114.33,True
263,'Widget 263',116.67,False
264,'Widget 264',119.0,True
265,'Widget 265',121.33,False
266,'Widget 266',123.67,True
267,'Widget 267',126.0,False
268,'Widget 268',128.33,True
269,'Widget 269',130.67,False
270,'Widget 270',133.0,True
271,'Widget 271',135.33,False
272,'Widget 272',137.67,True
273,'Widget 273',140.0,False
274,'Widget 274',142.33,True
275,'Widget 275',144.67,False
276,'Widget 276',147.0,True
277,'Widget 277',149.33,False
278,'Widget 278',151.67,True
279,'Widget 279',154.0,False
280,'Widget 280',156.33,True
281,'Widget 281',158.67,False
282,'Widget 282',161.0,True
283,'Widget 283',163.33,False
284,'Widget 284',165.67,True
285,'Widget 285',168.0,False
286,'Widget 286',3.67,True
287,'Widget 287',6.0,False
288,'Widget 288',8.33,True
289,'Widget 289',10.67,False
290,'Widget 290',13.0,True
291,'Widget 291',15.33,False
292,'Widget 292',17.67,True
293,'Widget 293',20.0,False
294,'Widget 294',22.33,True
295,'Widget 295',24.67,False
296,'Widget 296',27.0,True
297,'Widget 297',29.33,False
298,'Widget 298',31.67,True
299,'Widget 299',34.0,False
300,'Widget 300',36.33,True
301,'Widget 301',38.67,False
302,'Widget 302',41.0,True
303,'Widget 303',43.33,False
304,'Widget 304',45.67,True
305,'Widget 305',48.0,False
306,'Widget 306',50.33,True
307,'Widget 307',52.67,False
308,'Widget 308',55.0,True
309,'Widget 309',57.33,False
310,'Widget 310',59.67,True
311,'Widget 311',62.0,False
312,'Widget 312',64.33,True
313,'Widget 313',66.67,False
314,'Widget 314',69.0,True
315,'Widget 315',71.33,False
316,'Widget 316',73.67,True
317,'Widget 317',76.0,False
318,'Widget 318',78.33,True
319,'Widget 319',80.67,False
320,'Widget 320',83.0,True
321,'Widget 321',85.33,False
322,'Widget 322',87.67,True
323,'Widget 323',90.0,False
324,'Widget 324',92.33,True
325,'Widget 325',94.67,False
326,'Widget 326',97.0,True
327,'Widget 327',99.33,False
328,'Widget 328',101.67,True
329,'Widget 329',104.0,False
330,'Widget 330',106.33,True
331,'Widget 331',108.67,False
332,'Widget 332',111.0,True
333,'Widget 333',113.33,False
334,'Widget 334',115.67,True
335,'Widget 335',118.0,False
336,'Widget 336',120.33,True
337,'Widget 337',122.67,False
338,'Widget 338',125.0,True
339,'Widget 339',127.33,False
340,'Widget 340',129.67,True
341,'Widget 341',132.0,False
342,'Widget 342',134.33,True
343,'Widget 343',136.67,False
344,'Widget 344',139.0,True
345,'Widget 345',141.33,False
346,'Widget 346',143.67,True
347,'Widget 347',146.0,False
348,'Widget 348',148.33,True
349,'Widget 349',150.67,False
350,'Widget 350',153.0,True
351,'Widget 351',155.33,False
352,'Widget 352',157.67,True
353,'Widget 353',160.0,False
354,'Widget 354',162.33,True
355,'Widget 355',164.67,False
356,'Widget 356',167.0,True
357,'Widget 357',169.33,False
358,'Widget 358',5.0,True
359,'Widget 359',7.33,False
360,'Widget 360',9.67,True
361,'Widget 361',12.0,False
362,'Widget 362',14.33,True
363,'Widget 363',16.67,False
364,'Widget 364',19.0,True
365,'Widget 365',21.33,False
366,'Widget 366',23.67,True
367,'Widget 367',26.0,False
368,'Widget 368',28.33,True
369,'Widget 369',30.67,False
370,'Widget 370',33.0,True
371,'Widget 371',35.33,False
372,'Widget 372',37.67,True
373,'Widget 373',40.0,False
374,'Widget 374',42.33,True
375,'Widget 375',44.67,False
376,'Widget 376',47.0,True
377,'Widget 377',49.33,False
378,'Widget 378',51.67,True
379,'Widget 379',54.0,False
380,'Widget 380',56.33,True
381,'Widget 381',58.67,False
382,'Widget 382',61.0,True
383,'Widget 383',63.33,False
384,'Widget 384',65.67,True
385,'Widget 385',68.0,False
386,'Widget 386',70.33,True
387,'Widget 387',72.67,False
388,'Widget 388',75.0,True
389,'Widget 389',77.33,False
390,'Widget 390',79.67,True
391,'Widget 391',82.0,False
392,'Widget 392',84.33,True
393,'Widget 393',86.67,False
394,'Widget 394',89.0,True
395,'Widget 395',91.33,False
396,'Widget 396',93.67,True
397,'Widget 397',96.0,False
398,'Widget 398',98.33,True
399,'Widget 399',100.67,False
400,'Widget 400',103.0,True
401,'Widget 401',105.33,False
402,'Widget 402',107.67,True
403,'Widget 403',110.0,False
404,'Widget 404',112.33,True
405,'Widget 405',114.67,False
406,'Widget 406',117.0,True
407,'Widget 407',119.33,False
408,'Widget 408',121.67,True
409,'Widget 409',124.0,False
410,'Widget 410',126.33,True
411,'Widget 411',128.67,False
412,'Widget 412',131.0,True
413,'Widget 413',133.33,False
414,'Widget 414',135.67,True
415,'Widget 415',138.0,False
416,'Widget 416',140.33,True
417,'Widget 417',142.67,False
418,'Widget 418',145.0,True
419,'Widget 419',147.33,False
420,'Widget 420',149.67,True
421,'Widget 421',152.0,False
422,'Widget 422',154.33,True
423,'Widget 423',156.67,False
424,'Widget 424',159.0,True
425,'Widget 425',161.33,False
426,'Widget 426',163.67,True
427,'Widget 427',166.0,False
428,'Widget 428',168.33,True
429,'Widget 429',4.0,False
430,'Widget 430',6.33,True
431,'Widget 431',8.67,False
432,'Widget 432',11.0,True
433,'Widget 433',13.33,False
434,'Widget 434',15.67,True
435,'Widget 435',18.0,False
436,'Widget 436',20.33,True
437,'Widget 437',22.67,False
438,'Widget 438',25.0,True
439,'Widget 439',27.33,False
440,'Widget 440',29.67,True
441,'Widget 441',32.0,False
442,'Widget 442',34.33,True
443,'Widget 443',36.67,False
444,'Widget 444',39.0,True
445,'Widget 445',41.33,False
446,'Widget 446',43.67,True
447,'Widget 447',46.0,False
448,'Widget 448',48.33,True
449,'Widget 449',50.67,False
450,'Widget 450',53.0,True
451,'Widget 451',55.33,False
452,'Widget 452',57.67,True
453,'Widget 453',60.0,False
454,'Widget 454',62.33,True
455,'Widget 455',64.67,False
456,'Widget 456',67.0,True
457,'Widget 457',69.33,False
458,'Widget 458',71.67,True
459,'Widget 459',74.0,False
460,'Widget 460',76.33,True
461,'Widget 461',78.67,False
462,'Widget 462',81.0,True
463,'Widget 463',83.33,False
464,'Widget 464',85.67,True
465,'Widget 465',88.0,False
466,'Widget 466',90.33,True
467,'Widget 467',92.67,False
468,'Widget 468',95.0,True
469,'Widget 469',97.33,False
470,'Widget 470',99.67,True
471,'Widget 471',102.0,False
472,'Widget 472',104.33,True
473,'Widget 473',106.67,False
474,'Widget 474',109.0,True
475,'Widget 475',111.33,False
476,'Widget 476',113.67,True
477,'Widget 477',116.0,False
478,'Widget 478',118.33,True
479,'Widget 479',120.67,False
480,'Widget 480',123.0,True
481,'Widget 481',125.33,False
482,'Widget 482',127.67,True
483,'Widget 483',130.0,False
484,'Widget 484',132.33,True
485,'Widget 485',134.67,False
486,'Widget 486',137.0,True
487,'Widget 487',139.33,False
488,'Widget 488',141.67,True
489,'Widget 489',144.0,False
490,'Widget 490',146.33,True
491,'Widget 491',148.67,False
492,'Widget 492',151.0,True
493,'Widget 493',153.33,False
494,'Widget 494',155.67,True
495,'Widget 495',158.0,False
496,'Widget 496',160.33,True
497,'Widget 497',162.67,False
498,'Widget 498',165.0,True
499,'Widget 499',167.33,False
500,'Widget 500',3.0,True
501,'Widget 501',5.33,False
502,'Widget 502',7.67,True
503,'Widget 503',10.0,False
504,'Widget 504',12.33,True
505,'Widget 505',14.67,False
506,'Widget 506',17.0,True
507,'Widget 507',19.33,False
508,'Widget 508',21.67,True
509,'Widget 509',24.0,False
510,'Widget 510',26.33,True
511,'Widget 511',28.67,False
512,'Widget 512',31.0,True
513,'Widget 513',33.33,False
514,'Widget 514',35.67,True
515,'Widget 515',38.0,False
516,'Widget 516',40.33,True
517,'Widget 517',42.67,False
518,'Widget 518',45.0,True
519,'Widget 519',47.33,False
520,'Widget 520',49.67,True
521,'Widget 521',52.0,False
522,'Widget 522',54.33,True
523,'Widget 523',56.67,False
524,'Widget 524',59.0,True
525,'Widget 525',61.33,False
526,'Widget 526',63.67,True
527,'Widget 527',66.0,False
528,'Widget 528',68.33,True
529,'Widget 529',70.67,False
530,'Widget 530',73.0,True
531,'Widget 531',75.33,False
532,'Widget 532',77.67,True
533,'Widget 533',80.0,False
534,'Widget 534',82.33,True
535,'Widget 535',84.67,False
536,'Widget 536',87.0,True
537,'Widget 537',89.33,False
538,'Widget 538',91.67,True
539,'Widget 539',94.0,False
540,'Widget 540',96.33,True
541,'Widget 541',98.67,False
542,'Widget 542',101.0,True
543,'Widget 543',103.33,False
544,'Widget 544',105.67,True
545,'Widget 545',108.0,False
546,'Widget 546',110.33,True
547,'Widget 547',112.67,False
548,'Widget 548',115.0,True
549,'Widget 549',117.33,False
550,'Widget 550',119.67,True
551,'Widget 551',122.0,False
552,'Widget 552',124.33,True
553,'Widget 553',126.67,False
554,'Widget 554',129.0,True
555,'Widget 555',131.33,False
556,'Widget 556',133.67,True
557,'Widget 557',136.0,False
558,'Widget 558',138.33,True
559,'Widget 559',140.67,False
560,'Widget 560',143.0,True
561,'Widget 561',145.33,False
562,'Widget 562',147.67,True
563,'Widget 563',150.0,False
564,'Widget 564',152.33,True
565,'Widget 565',154.67,False
566,'Widget 566',157.0,True
567,'Widget 567',159.33,False
568,'Widget 568',161.67,True
569,'Widget 569',164.0,False
570,'Widget 570',166.33,True
571,'Widget 571',168.67,False
572,'Widget 572',4.33,True
573,'Widget 573',6.67,False
574,'Widget 574',9.0,True
575,'Widget 575',11.33,False
576,'Widget 576',13.67,True
577,'Widget 577',16.0,False
578,'Widget 578',18.33,True
579,'Widget 579',20.67,False
580,'Widget 580',23.0,True
581,'Widget 581',25.33,False
582,'Widget 582',27.67,True
583,'Widget 583',30.0,False
584,'Widget 584',32.33,True
585,'Widget 585',34.67,False
586,'Widget 586',37.0,True
587,'Widget 587',39.33,False
588,'Widget 588',41.67,True
589,'Widget 589',44.0,False
590,'Widget 590',46.33,True
591,'Widget 591',48.67,False
592,'Widget 592',51.0,True
593,'Widget 593',53.33,False
594,'Widget 594',55.67,True
595,'Widget 595',58.0,False
596,'Widget 596',60.33,True
597,'Widget 597',62.67,False
598,'Widget 598',65.0,True
599,'Widget 599',67.33,False
600,'Widget 600',69.67,True
601,'Widget 601',72.0,False
602,'Widget 602',74.33,True
603,'Widget 603',76.67,False
604,'Widget 604',79.0,True
605,'Widget 605',81.33,False
606,'Widget 606',83.67,True
607,'Widget 607',86.0,False
608,'Widget 608',88.33,True
609,'Widget 609',90.67,False
610,'Widget 610',93.0,True
611,'Widget 611',95.33,False
612,'Widget 612',97.67,True
613,'Widget 613',100.0,False
614,'Widget 614',102.33,True
615,'Widget 615',104.67,False
616,'Widget 616',107.0,True
617,'Widget 617',109.33,False
618,'Widget 618',111.67,True
619,'Widget 619',114.0,False
620,'Widget 620',116.33,True
621,'Widget 621',118.67,False
622,'Widget 622',121.0,True
623,'Widget 623',123.33,False
624,'Widget 624',125.67,True
625,'Widget 625',128.0,False
626,'Widget 626',130.33,True
627,'Widget 627',132.67,False
628,'Widget 628',135.0,True
629,'Widget 629',137.33,False
630,'Widget 630',139.67,True
631,'Widget 631',142.0,False
632,'Widget 632',144.33,True
633,'Widget 633',146.67,False
634,'Widget 634',149.0,True
635,'Widget 635',151.33,False
636,'Widget 636',153.67,True
637,'Widget 637',156.0,False
638,'Widget 638',158.33,True
639,'Widget 639',160.67,False
640,'Widget 640',163.0,True
641,'Widget 641',165.33,False
642,'Widget 642',167.67,True
643,'Widget 643',3.33,False
644,'Widget 644',5.67,True
645,'Widget 645',8.0,False
646,'Widget 646',10.33,True
647,'Widget 647',12.67,False
648,'Widget 648',15.0,True
649,'Widget 649',17.33,False
650,'Widget 650',19.67,True
651,'Widget 651',22.0,False
652,'Widget 652',24.33,True
653,'Widget 653',26.67,False
654,'Widget 654',29.0,True
655,'Widget 655',31.33,False
656,'Widget 656',33.67,True
657,'Widget 657',36.0,False
658,'Widget 658',38.33,True
659,'Widget 659',40.67,False
660,'Widget 660',43.0,True
661,'Widget 661',45.33,False
662,'Widget 662',47.67,True
663,'Widget 663',50.0,False
664,'Widget 664',52.33,True
665,'Widget 665',54.67,False
666,'Widget 666',57.0,True
667,'Widget 667',59.33,False
668,'Widget 668',61.67,True
669,'Widget 669',64.0,False
670,'Widget 670',66.33,True
671,'Widget 671',68.67,False
672,'Widget 672',71.0,True
673,'Widget 673',73.33,False
674,'Widget 674',75.67,True
675,'Widget 675',78.0,False
676,'Widget 676',80.33,True
677,'Widget 677',82.67,False
678,'Widget 678',85.0,True
679,'Widget 679',87.33,False
680,'Widget 680',89.67,True
681,'Widget 681',92.0,False
682,'Widget 682',94.33,True
683,'Widget 683',96.67,False
684,'Widget 684',99.0,True
685,'Widget 685',101.33,False
686,'Widget 686',103.67,True
687,'Widget 687',106.0,False
688,'Widget 688',108.33,True
689,'Widget 689',110.67,False
690,'Widget 690',113.0,True
691,'Widget 691',115.33,False
692,'Widget 692',117.67,True
693,'Widget 693',120.0,False
694,'Widget 694',122.33,True
695,'Widget 695',124.67,False
696,'Widget 696',127.0,True
697,'Widget 697',129.33,False
698,'Widget 698',131.67,True
699,'Widget 699',134.0,False
700,'Widget 700',136.33,True
701,'Widget 701',138.67,False
702,'Widget 702',141.0,True
703,'Widget 703',143.33,False
704,'Widget 704',145.67,True
705,'Widget 705',148.0,False
706,'Widget 706',150.33,True
707,'Widget 707',152.67,False
708,'Widget 708',155.0,True
709,'Widget 709',157.33,False
710,'Widget 710',159.67,True
711,'Widget 711',162.0,False
712,'Widget 712',164.33,True
713,'Widget 713',166.67,False
714,'Widget 714',169.0,True
715,'Widget 715',4.67,False
716,'Widget 716',7.0,True
717,'Widget 717',9.33,False
718,'Widget 718',11.67,True
719,'Widget 719',14.0,False
720,'Widget 720',16.33,True
721,'Widget 721',18.67,False
722,'Widget 722',21.0,True
723,'Widget 723',23.33,False
724,'Widget 724',25.67,True
725,'Widget 725',28.0,False
726,'Widget 726',30.33,True
727,'Widget 727',32.67,False
728,'Widget 728',35.0,True
729,'Widget 729',37.33,False
730,'Widget 730',39.67,True
731,'Widget 731',42.0,False
732,'Widget 732',44.33,True
733,'Widget 733',46.67,False
734,'Widget 734',49.0,True
735,'Widget 735',51.33,False
736,'Widget 736',53.67,True
737,'Widget 737',56.0,False
738,'Widget 738',58.33,True
739,'Widget 739',60.67,False
740,'Widget 740',63.0,True
741,'Widget 741',65.33,False
742,'Widget 742',67.67,True
743,'Widget 743',70.0,False
744,'Widget 744',72.33,True
745,'Widget 745',74.67,False
746,'Widget 746',77.0,True
747,'Widget 747',79.33,False
748,'Widget 748',81.67,True
749,'Widget 749',84.0,False
750,'Widget 750',86.33,True
751,'Widget 751',88.67,False
752,'Widget 752',91.0,True
753,'Widget 753',93.33,False
754,'Widget 754',95.67,True
755,'Widget 755',98.0,False
756,'Widget 756',100.33,True
757,'Widget 757',102.67,False
758,'Widget 758',105.0,True
759,'Widget 759',107.33,False
760,'Widget 760',109.67,True
761,'Widget 761',112.0,False
762,'Widget 762',114.33,True
763,'Widget 763',116.67,False
764,'Widget 764',119.0,True
765,'Widget 765',121.33,False
766,'Widget 766',123.67,True
767,'Widget 767',126.0,False
768,'Widget 768',128.33,True
769,'Widget 769',130.67,False
770,'Widget 770',133.0,True
771,'Widget 771',135.33,False
772,'Widget 772',137.67,True
773,'Widget 773',140.0,False
774,'Widget 774',142.33,True
775,'Widget 775',144.67,False
776,'Widget 776',147.0,True
777,'Widget 777',149.33,False
778,'Widget 778',151.67,True
779,'Widget 779',154.0,False
780,'Widget 780',156.33,True
781,'Widget 781',158.67,False
782,'Widget 782',161.0,True
783,'Widget 783',163.33,False
784,'Widget 784',165.67,True
785,'Widget 785',168.0,False
786,'Widget 786',3.67,True
787,'Widget 787',6.0,False
788,'Widget 788',8.33,True
789,'Widget 789',10.67,False
790,'Widget 790',13.0,True
791,'Widget 791',15.33,False
792,'Widget 792',17.67,True
793,'Widget 793',20.0,False
794,'Widget 794',22.33,True
795,'Widget 795',24.67,False
796,'Widget 796',27.0,True
797,'Widget 797',29.33,False
798,'Widget 798',31.67,True
799,'Widget 799',34.0,False
800,'Widget 800',36.33,True
801,'Widget 801',38.67,False
802,'Widget 802',41.0,True
803,'Widget 803',43.33,False
804,'Widget 804',45.67,True
805,'Widget 805',48.0,False
806,'Widget 806',50.33,True
807,'Widget 807',52.67,False
808,'Widget 808',55.0,True
809,'Widget 809',57.33,False
810,'Widget 810',59.67,True
811,'Widget 811',62.0,False
812,'Widget 812',64.33,True
813,'Widget 813',66.67,False
814,'Widget 814',69.0,True
815,'Widget 815',71.33,False
816,'Widget 816',73.67,True
817,'Widget 817',76.0,False
818,'Widget 818',78.33,True
819,'Widget 819',80.67,False
820,'Widget 820',83.0,True
821,'Widget 821',85.33,False
822,'Widget 822',87.67,True
823,'Widget 823',90.0,False
824,'Widget 824',92.33,True
825,'Widget 825',94.67,False
826,'Widget 826',97.0,True
827,'Widget 827',99.33,False
828,'Widget 828',101.67,True
829,'Widget 829',104.0,False
830,'Widget 830',106.33,True
831,'Widget 831',108.67,False
832,'Widget 832',111.0,True
833,'Widget 833',113.33,False
834,'Widget 834',115.67,True
835,'Widget 835',118.0,False
836,'Widget 836',120.33,True
837,'Widget 837',122.67,False
838,'Widget 838',125.0,True
839,'Widget 839',127.33,False
840,'Widget 840',129.67,True
841,'Widget 841',132.0,False
842,'Widget 842',134.33,True
843,'Widget 843',136.67,False
844,'Widget 844',139.0,True
845,'Widget 845',141.33,False
846,'Widget 846',143.67,True
847,'Widget 847',146.0,False
848,'Widget 848',148.33,True
849,'Widget 849',150.67,False
850,'Widget 850',153.0,True
851,'Widget 851',155.33,False
852,'Widget 852',157.67,True
853,'Widget 853',160.0,False
854,'Widget 854',162.33,True
855,'Widget 855',164.67,False
856,'Widget 856',167.0,True
857,'Widget 857',169.33,False
858,'Widget 858',5.0,True
859,'Widget 859',7.33,False
860,'Widget 860',9.67,True
861,'Widget 861',12.0,False
862,'Widget 862',14.33,True
863,'Widget 863',16.67,False
864,'Widget 864',19.0,True
865,'Widget 865',21.33,False
866,'Widget 866',23.67,True
867,'Widget 867',26.0,False
868,'Widget 868',28.33,True
869,'Widget 869',30.67,False
870,'Widget 870',33.0,True
871,'Widget 871',35.33,False
872,'Widget 872',37.67,True
873,'Widget 873',40.0,False
874,'Widget 874',42.33,True
875,'Widget 875',44.67,False
876,'Widget 876',47.0,True
877,'Widget 877',49.33,False
878,'Widget 878',51.67,True
879,'Widget 879',54.0,False
880,'Widget 880',56.33,True
881,'Widget 881',58.67,False
882,'Widget 882',61.0,True
883,'Widget 883',63.33,False
884,'Widget 884',65.67,True
885,'Widget 885',68.0,False
886,'Widget 886',70.33,True
887,'Widget 887',72.67,False
888,'Widget 888',75.0,True
889,'Widget 889',77.33,False
890,'Widget 890',79.67,True
891,'Widget 891',82.0,False
892,'Widget 892',84.33,True
893,'Widget 893',86.67,False
894,'Widget 894',89.0,True
895,'Widget 895',91.33,False
896,'Widget 896',93.67,True
897,'Widget 897',96.0,False
898,'Widget 898',98.33,True
899,'Widget 899',100.67,False
900,'Widget 900',103.0,True
901,'Widget 901',105.33,False
902,'Widget 902',107.67,True
903,'Widget 903',110.0,False
904,'Widget 904',112.33,True
905,'Widget 905',114.67,False
906,'Widget 906',117.0,True
907,'Widget 907',119.33,False
908,'Widget 908',121.67,True
909,'Widget 909',124.0,False
910,'Widget 910',126.33,True
911,'Widget 911',128.67,False
912,'Widget 912',131.0,True
913,'Widget 913',133.33,False
914,'Widget 914',135.67,True
915,'Widget 915',138.0,False
916,'Widget 916',140.33,True
917,'Widget 917',142.67,False
918,'Widget 918',145.0,True
919,'Widget 919',147.33,False
920,'Widget 920',149.67,True
921,'Widget 921',152.0,False
922,'Widget 922',154.33,True
923,'Widget 923',156.67,False
924,'Widget 924',159.0,True
925,'Widget 925',161.33,False
926,'Widget 926',163.67,True
927,'Widget 927',166.0,False
928,'Widget 928',168.33,True
929,'Widget 929',4.0,False
930,'Widget 930',6.33,True
931,'Widget 931',8.67,False
932,'Widget 932',11.0,True
933,'Widget 933',13.33,False
934,'Widget 934',15.67,True
935,'Widget 935',18.0,False
936,'Widget 936',20.33,True
937,'Widget 937',22.67,False
938,'Widget 938',25.0,True
939,'Widget 939',27.33,False
940,'Widget 940',29.67,True
941,'Widget 941',32.0,False
942,'Widget 942',34.33,True
943,'Widget 943',36.67,False
944,'Widget 944',39.0,True
945,'Widget 945',41.33,False
946,'Widget 946',43.67,True
947,'Widget 947',46.0,False
948,'Widget 948',48.33,True
949,'Widget 949',50.67,False
950,'Widget 950',53.0,True
951,'Widget 951',55.33,False
952,'Widget 952',57.67,True
953,'Widget 953',60.0,False
954,'Widget 954',62.33,True
955,'Widget 955',64.67,False
956,'Widget 956',67.0,True
957,'Widget 957',69.33,False
958,'Widget 958',71.67,True
959,'Widget 959',74.0,False
960,'Widget 960',76.33,True
961,'Widget 961',78.67,False
962,'Widget 962',81.0,True
963,'Widget 963',83.33,False
964,'Widget 964',85.67,True
965,'Widget 965',88.0,False
966,'Widget 966',90.33,True
967,'Widget 967',92.67,False
968,'Widget 968',95.0,True
969,'Widget 969',97.33,False
970,'Widget 970',99.67,True
971,'Widget 971',102.0,False
972,'Widget 972',104.33,True
973,'Widget 973',106.67,False
974,'Widget 974',109.0,True
975,'Widget 975',111.33,False
976,'Widget 976',113.67,True
977,'Widget 977',116.0,False
978,'Widget 978',118.33,True
979,'Widget 979',120.67,False
980,'Widget 980',123.0,True
981,'Widget 981',125.33,False
982,'Widget 982',127.67,True
983,'Widget 983',130.0,False
984,'Widget 984',132.33,True
985,'Widget 985',134.67,False
986,'Widget 986',137.0,True
987,'Widget 987',139.33,False
988,'Widget 988',141.67,True
989,'Widget 989',144.0,False
990,'Widget 990',146.33,True
991,'Widget 991',148.67,False
992,'Widget 992',151.0,True
993,'Widget 993',153.33,False
994,'Widget 994',155.67,True
995,'Widget 995',158.0,False
996,'Widget 996',160.33,True
997,'Widget 997',162.67,False
998,'Widget 998',165.0,True
999,'Widget 999',167.33,False
1000,'Widget 1000',3.0,True
1001,'Widget 1001',5.33,False
1002,'Widget 1002',7.67,True
1003,'Widget 1003',10.0,False
1004,'Widget 1004',12.33,True
1005,'Widget 1005',14.67,False
1006,'Widget 1006',17.0,True
1007,'Widget 1007',19.33,False
1008,'Widget 1008',21.67,True
1009,'Widget 1009',24.0,False
1010,'Widget 1010',26.33,True
1011,'Widget 1011',28.67,False
1012,'Widget 1012',31.0,True
1013,'Widget 1013',33.33,False
1014,'Widget 1014',35.67,True
1015,'Widget 1015',38.0,False
1016,'Widget 1016',40.33,True
1017,'Widget 1017',42.67,False
1018,'Widget 1018',45.0,True
1019,'Widget 1019',47.33,False
1020,'Widget 1020',49.67,True
1021,'Widget 1021',52.0,False
1022,'Widget 1022',54.33,True
1023,'Widget 1023',56.67,False
1024,'Widget 1024',59.0,True
1025,'Widget 1025',61.33,False
1026,'Widget 1026',63.67,True
1027,'Widget 1027',66.0,False
1028,'Widget 1028',68.33,True
1029,'Widget 1029',70.67,False
1030,'Widget 1030',73.0,True
1031,'Widget 1031',75.33,False
1032,'Widget 1032',77.67,True
1033,'Widget 1033',80.0,False
1034,'Widget 1034',82.33,True
1035,'Widget 1035',84.67,False
1036,'Widget 1036',87.0,True
1037,'Widget 1037',89.33,False
1038,'Widget 1038',91.67,True
1039,'Widget 1039',94.0,False
1040,'Widget 1040',96.33,True
1041,'Widget 1041',98.67,False
1042,'Widget 1042',101.0,True
1043,'Widget 1043',103.33,False
1044,'Widget 1044',105.67,True
1045,'Widget 1045',108.0,False
1046,'Widget 1046',110.33,True
1047,'Widget 1047',112.67,False
1048,'Widget 1048',115.0,True
1049,'Widget 1049',117.33,False
1050,'Widget 1050',119.67,True
1051,'Widget 1051',122.0,False
1052,'Widget 1052',124.33,True
1053,'Widget 1053',126.67,False
1054,'Widget 1054',129.0,True
1055,'Widget 1055',131.33,False
1056,'Widget 1056',133.67,True
1057,'Widget 1057',136.0,False
1058,'Widget 1058',138.33,True
1059,'Widget 1059',140.67,False
1060,'Widget 1060',143.0,True
1061,'Widget 1061',145.33,False
1062,'Widget 1062',147.67,True
1063,'Widget 1063',150.0,False
1064,'Widget 1064',152.33,True
1065,'Widget 1065',154.67,False
1066,'Widget 1066',157.0,True
1067,'Widget 1067',159.33,False
1068,'Widget 1068',161.67,True
1069,'Widget 1069',164.0,False
1070,'Widget 1070',166.33,True
1071,'Widget 1071',168.67,False
1072,'Widget 1072',4.33,True
1073,'Widget 1073',6.67,False
1074,'Widget 1074',9.0,True
1075,'Widget 1075',11.33,False
1076,'Widget 1076',13.67,True
1077,'Widget 1077',16.0,False
1078,'Widget 1078',18.33,True
1079,'Widget 1079',20.67,False
1080,'Widget 1080',23.0,True
1081,'Widget 1081',25.33,False
1082,'Widget 1082',27.67,True
1083,'Widget 1083',30.0,False
1084,'Widget 1084',32.33,True
1085,'Widget 1085',34.67,False
1086,'Widget 1086',37.0,True
1087,'Widget 1087',39.33,False
1088,'Widget 1088',41.67,True
1089,'Widget 1089',44.0,False
1090,'Widget 1090',46.33,True
1091,'Widget 1091',48.67,False
1092,'Widget 1092',51.0,True
1093,'Widget 1093',53.33,False
1094,'Widget 1094',55.67,True
1095,'Widget 1095',58.0,False
1096,'Widget 1096',60.33,True
1097,'Widget 1097',62.67,False
1098,'Widget 1098',65.0,True
1099,'Widget 1099',67.33,False
1100,'Widget 1100',69.67,True
1101,'Widget 1101',72.0,False
1102,'Widget 1102',74.33,True
1103,'Widget 1103',76.67,False
1104,'Widget 1104',79.0,True
1105,'Widget 1105',81.33,False
1106,'Widget 1106',83.67,True
1107,'Widget 1107',86.0,False
1108,'Widget 1108',88.33,True
1109,'Widget 1109',90.67,False
1110,'Widget 1110',93.0,True
1111,'Widget 1111',95.33,False
1112,'Widget 1112',97.67,True
1113,'Widget 1113',100.0,False
1114,'Widget 1114',102.33,True
1115,'Widget 1115',104.67,False
1116,'Widget 1116',107.0,True
1117,'Widget 1117',109.33,False
1118,'Widget 1118',111.67,True
1119,'Widget 1119',114.0,False
1120,'Widget 1120',116.33,True
1121,'Widget 1121',118.67,False
1122,'Widget 1122',121.0,True
1123,'Widget 1123',123.33,False
1124,'Widget 1124',125.67,True
1125,'Widget 1125',128.0,False
1126,'Widget 1126',130.33,True
1127,'Widget 1127',132.67,False
1128,'Widget 1128',135.0,True
1129,'Widget 1129',137.33,False
1130,'Widget 1130',139.67,True
1131,'Widget 1131',142.0,False
1132,'Widget 1132',144.33,True
1133,'Widget 1133',146.67,False
1134,'Widget 1134',149.0,True
1135,'Widget 1135',151.33,False
1136,'Widget 1136',153.67,True
1137,'Widget 1137',156.0,False
1138,'Widget 1138',158.33,True
1139,'Widget 1139',160.67,False
1140,'Widget 1140',163.0,True
1141,'Widget 1141',165.33,False
1142,'Widget 1142',167.67,True
1143,'Widget 1143',3.33,False
1144,'Widget 1144',5.67,True
1145,'Widget 1145',8.0,False
1146,'Widget 1146',10.33,True
1147,'Widget 1147',12.67,False
1148,'Widget 1148',15.0,True
1149,'Widget 1149',17.33,False
1150,'Widget 1150',19.67,True
1151,'Widget 1151',22.0,False
1152,'Widget 1152',24.33,True
1153,'Widget 1153',26.67,False
1154,'Widget 1154',29.0,True
1155,'Widget 1155',31.33,False
1156,'Widget 1156',33.67,True
1157,'Widget 1157',36.0,False
1158,'Widget 1158',38.33,True
1159,'Widget 1159',40.67,False
1160,'Widget 1160',43.0,True
1161,'Widget 1161',45.33,False
1162,'Widget 1162',47.67,True
1163,'Widget 1163',50.0,False
1164,'Widget 1164',52.33,True
1165,'Widget 1165',54.67,False
1166,'Widget 1166',57.0,True
1167,'Widget 1167',59.33,False
1168,'Widget 1168',61.67,True
1169,'Widget 1169',64.0,False
1170,'Widget 1170',66.33,True
1171,'Widget 1171',68.67,False
1172,'Widget 1172',71.0,True
1173,'Widget 1173',73.33,False
1174,'Widget 1174',75.67,True
1175,'Widget 1175',78.0,False
1176,'Widget 1176',80.33,True
1177,'Widget 1177',82.67,False
1178,'Widget 1178',85.0,True
1179,'Widget 1179',87.33,False
1180,'Widget 1180',89.67,True
1181,'Widget 1181',92.0,False
1182,'Widget 1182',94.33,True
1183,'Widget 1183',96.67,False
1184,'Widget 1184',99.0,True
1185,'Widget 1185',101.33,False
1186,'Widget 1186',103.67,True
1187,'Widget 1187',106.0,False
1188,'Widget 1188',108.33,True
1189,'Widget 1189',110.67,False
1190,'Widget 1190',113.0,True
1191,'Widget 1191',115.33,False
1192,'Widget 1192',117.67,True
1193,'Widget 1193',120.0,False
1194,'Widget 1194',122.33,True
1195,'Widget 1195',124.67,False
1196,'Widget 1196',127.0,True
1197,'Widget 1197',129.33,False
1198,'Widget 1198',131.67,True
1199,'Widget 1199',134.0,False
1200,'Widget 1200',136.33,True
1201,'Widget 1201',138.67,False
1202,'Widget 1202',141.0,True
1203,'Widget 1203',143.33,False
1204,'Widget 1204',145.67,True
1205,'Widget 1205',148.0,False
1206,'Widget 1206',150.33,True
1207,'Widget 1207',152.67,False
1208,'Widget 1208',155.0,True
1209,'Widget 1209',157.33,False
1210,'Widget 1210',159.67,True
1211,'Widget 1211',162.0,False
1212,'Widget 1212',164.33,True
1213,'Widget 1213',166.67,False
1214,'Widget 1214',169.0,True
1215,'Widget 1215',4.67,False
1216,'Widget 1216',7.0,True
1217,'Widget 1217',9.33,False
1218,'Widget 1218',11.67,True
1219,'Widget 1219',14.0,False
1220,'Widget 1220',16.33,True
1221,'Widget 1221',18.67,False
1222,'Widget 1222',21.0,True
1223,'Widget 1223',23.33,False
1224,'Widget 1224',25.67,True
1225,'Widget 1225',28.0,False
1226,'Widget 1226',30.33,True
1227,'Widget 1227',32.67,False
1228,'Widget 1228',35.0,True
1229,'Widget 1229',37.33,False
1230,'Widget 1230',39.67,True
1231,'Widget 1231',42.0,False
1232,'Widget 1232',44.33,True
1233,'Widget 1233',46.67,False
1234,'Widget 1234',49.0,True
1235,'Widget 1235',51.33,False
1236,'Widget 1236',53.67,True
1237,'Widget 1237',56.0,False
1238,'Widget 1238',58.33,True
1239,'Widget 1239',60.67,False
1240,'Widget 1240',63.0,True
1241,'Widget 1241',65.33,False
1242,'Widget 1242',67.67,True
1243,'Widget 1243',70.0,False
1244,'Widget 1244',72.33,True
1245,'Widget 1245',74.67,False
1246,'Widget 1246',77.0,True
1247,'Widget 1247',79.33,False
1248,'Widget 1248',81.67,True
1249,'Widget 1249',84.0,False
1250,'Widget 1250',86.33,True
1251,'Widget 1251',88.67,False
1252,'Widget 1252',91.0,True
1253,'Widget 1253',93.33,False
1254,'Widget 1254',95.67,True
1255,'Widget 1255',98.0,False
1256,'Widget 1256',100.33,True
1257,'Widget 1257',102.67,False
1258,'Widget 1258',105.0,True
1259,'Widget 1259',107.33,False
1260,'Widget 1260',109.67,True
1261,'Widget 1261',112.0,False
1262,'Widget 1262',114.33,True
1263,'Widget 1263',116.67,False
1264,'Widget 1264',119.0,True
1265,'Widget 1265',121.33,False
1266,'Widget 1266',123.67,True
1267,'Widget 1267',126.0,False
1268,'Widget 1268',128.33,True
1269,'Widget 1269',130.67,False
1270,'Widget 1270',133.0,True
1271,'Widget 1271',135.33,False
1272,'Widget 1272',137.67,True
1273,'Widget 1273',140.0,False
1274,'Widget 1274',142.33,True
1275,'Widget 1275',144.67,False
1276,'Widget 1276',147.0,True
1277,'Widget 1277',149.33,False
1278,'Widget 1278',151.67,True
1279,'Widget 1279',154.0,False
1280,'Widget 1280',156.33,True
1281,'Widget 1281',158.67,False
1282,'Widget 1282',161.0,True
1283,'Widget 1283',163.33,False
1284,'Widget 1284',165.67,True
1285,'Widget 1285',168.0,False
1286,'Widget 1286',3.67,True
1287,'Widget 1287',6.0,False
1288,'Widget 1288',8.33,True
1289,'Widget 1289',10.67,False
1290,'Widget 1290',13.0,True
1291,'Widget 1291',15.33,False
1292,'Widget 1292',17.67,True
1293,'Widget 1293',20.0,False
1294,'Widget 1294',22.33,True
1295,'Widget 1295',24.67,False
1296,'Widget 1296',27.0,True
1297,'Widget 1297',29.33,False
1298,'Widget 1298',31.67,True
1299,'Widget 1299',34.0,False
1300,'Widget 1300',36.33,True
1301,'Widget 1301',38.67,False
1302,'Widget 1302',41.0,True
1303,'Widget 1303',43.33,False
1304,'Widget 1304',45.67,True
1305,'Widget 1305',48.0,False
1306,'Widget 1306',50.33,True
1307,'Widget 1307',52.67,False
1308,'Widget 1308',55.0,True
1309,'Widget 1309',57.33,False
1310,'Widget 1310',59.67,True
1311,'Widget 1311',62.0,False
1312,'Widget 1312',64.33,True
1313,'Widget 1313',66.67,False
1314,'Widget 1314',69.0,True
1315,'Widget 1315',71.33,False
1316,'Widget 1316',73.67,True
1317,'Widget 1317',76.0,False
1318,'Widget 1318',78.33,True
1319,'Widget 1319',80.67,False
1320,'Widget 1320',83.0,True
1321,'Widget 1321',85.33,False
1322,'Widget 1322',87.67,True
1323,'Widget 1323',90.0,False
1324,'Widget 1324',92.33,True
1325,'Widget 1325',94.67,False
1326,'Widget 1326',97.0,True
1327,'Widget 1327',99.33,False
1328,'Widget 1328',101.67,True
1329,'Widget 1329',104.0,False
1330,'Widget 1330',106.33,True
1331,'Widget 1331',108.67,False
1332,'Widget 1332',111.0,True
1333,'Widget 1333',113.33,False
1334,'Widget 1334',115.67,True
1335,'Widget 1335',118.0,False
1336,'Widget 1336',120.33,True
1337,'Widget 1337',122.67,False
1338,'Widget 1338',125.0,True
1339,'Widget 1339',127.33,False
1340,'Widget 1340',129.67,True
1341,'Widget 1341',132.0,False
1342,'Widget 1342',134.33,True
1343,'Widget 1343',136.67,False
1344,'Widget 1344',139.0,True
1345,'Widget 1345',141.33,False
1346,'Widget 1346',143.67,True
1347,'Widget 1347',146.0,False
1348,'Widget 1348',148.33,True
1349,'Widget 1349',150.67,False
1350,'Widget 1350',153.0,True
1351,'Widget 1351',155.33,False
1352,'Widget 1352',157.67,True
1353,'Widget 1353',160.0,False
1354,'Widget 1354',162.33,True
1355,'Widget 1355',164.67,False
1356,'Widget 1356',167.0,True
1357,'Widget 1357',169.33,False
1358,'Widget 1358',5.0,True
1359,'Widget 1359',7.33,False
1360,'Widget 1360',9.67,True
1361,'Widget 1361',12.0,False
1362,'Widget 1362',14.33,True
1363,'Widget 1363',16.67,False
1364,'Widget 1364',19.0,True
1365,'Widget 1365',21.33,False
1366,'Widget 1366',23.67,True
1367,'Widget 1367',26.0,False
1368,'Widget 1368',28.33,True
1369,'Widget 1369',30.67,False
1370,'Widget 1370',33.0,True
1371,'Widget 1371',35.33,False
1372,'Widget 1372',37.67,True
1373,'Widget 1373',40.0,False
1374,'Widget 1374',42.33,True
1375,'Widget 1375',44.67,False
1376,'Widget 1376',47.0,True
1377,'Widget 1377',49.33,False
1378,'Widget 1378',51.67,True
1379,'Widget 1379',54.0,False
1380,'Widget 1380',56.33,True
1381,'Widget 1381',58.67,False
1382,'Widget 1382',61.0,True
1383,'Widget 1383',63.33,False
1384,'Widget 1384',65.67,True
1385,'Widget 1385',68.0,False
1386,'Widget 1386',70.33,True
1387,'Widget 1387',72.67,False
1388,'Widget 1388',75.0,True
1389,'Widget 1389',77.33,False
1390,'Widget 1390',79.67,True
1391,'Widget 1391',82.0,False
1392,'Widget 1392',84.33,True
1393,'Widget 1393',86.67,False
1394,'Widget 1394',89.0,True
1395,'Widget 1395',91.33,False
1396,'Widget 1396',93.67,True
1397,'Widget 1397',96.0,False
1398,'Widget 1398',98.33,True
1399,'Widget 1399',100.67,False
1400,'Widget 1400',103.0,True
1401,'Widget 1401',105.33,False
1402,'Widget 1402',107.67,True
1403,'Widget 1403',110.0,False
1404,'Widget 1404',112.33,True
1405,'Widget 1405',114.67,False
1406,'Widget 1406',117.0,True
1407,'Widget 1407',119.33,False
1408,'Widget 1408',121.67,True
1409,'Widget 1409',124.0,False
1410,'Widget 1410',126.33,True
1411,'Widget 1411',128.67,False
1412,'Widget 1412',131.0,True
1413,'Widget 1413',133.33,False
1414,'Widget 1414',135.67,True
1415,'Widget 1415',138.0,False
1416,'Widget 1416',140.33,True
1417,'Widget 1417',142.67,False
1418,'Widget 1418',145.0,True
1419,'Widget 1419',147.33,False
1420,'Widget 1420',149.67,True
1421,'Widget 1421',152.0,False
1422,'Widget 1422',154.33,True
1423,'Widget 1423',156.67,False
1424,'Widget 1424',159.0,True
1425,'Widget 1425',161.33,False
1426,'Widget 1426',163.67,True
1427,'Widget 1427',166.0,False
1428,'Widget 1428',168.33,True
1429,'Widget 1429',4.0,False
1430,'Widget 1430',6.33,True
1431,'Widget 1431',8.67,False
1432,'Widget 1432',11.0,True
1433,'Widget 1433',13.33,False
1434,'Widget 1434',15.67,True
1435,'Widget 1435',18.0,False
1436,'Widget 1436',20.33,True
1437,'Widget 1437',22.67,False
1438,'Widget 1438',25.0,True
1439,'Widget 1439',27.33,False
1440,'Widget 1440',29.67,True
1441,'Widget 1441',32.0,False
1442,'Widget 1442',34.33,True
1443,'Widget 1443',36.67,False
1444,'Widget 1444',39.0,True
1445,'Widget 1445',41.33,False
1446,'Widget 1446',43.67,True
1447,'Widget 1447',46.0,False
1448,'Widget 1448',48.33,True
1449,'Widget 1449',50.67,False
1450,'Widget 1450',53.0,True
1451,'Widget 1451',55.33,False
1452,'Widget 1452',57.67,True
1453,'Widget 1453',60.0,False
1454,'Widget 1454',62.33,True
1455,'Widget 1455',64.67,False
1456,'Widget 1456',67.0,True
1457,'Widget 1457',69.33,False
1458,'Widget 1458',71.67,True
1459,'Widget 1459',74.0,False
1460,'Widget 1460',76.33,True
1461,'Widget 1461',78.67,False
1462,'Widget 1462',81.0,True
1463,'Widget 1463',83.33,False
1464,'Widget 1464',85.67,True
1465,'Widget 1465',88.0,False
1466,'Widget 1466',90.33,True
1467,'Widget 1467',92.67,False
1468,'Widget 1468',95.0,True
1469,'Widget 1469',97.33,False
1470,'Widget 1470',99.67,True
1471,'Widget 1471',102.0,False
1472,'Widget 1472',104.33,True
1473,'Widget 1473',106.67,False
1474,'Widget 1474',109.0,True
1475,'Widget 1475',111.33,False
1476,'Widget 1476',113.67,True
1477,'Widget 1477',116.0,False
1478,'Widget 1478',118.33,True
1479,'Widget 1479',120.67,False
1480,'Widget 1480',123.0,True
1481,'Widget 1481',125.33,False
1482,'Widget 1482',127.67,True
1483,'Widget 1483',130.0,False
1484,'Widget 1484',132.33,True
1485,'Widget 1485',134.67,False
1486,'Widget 1486',137.0,True
1487,'Widget 1487',139.33,False
1488,'Widget 1488',141.67,True
1489,'Widget 1489',144.0,False
1490,'Widget 1490',146.33,True
1491,'Widget 1491',148.67,False
1492,'Widget 1492',151.0,True
1493,'Widget 1493',153.33,False
1494,'Widget 1494',155.67,True
1495,'Widget 1495',158.0,False
1496,'Widget 1496',160.33,True
1497,'Widget 1497',162.67,False
1498,'Widget 1498',165.0,True
1499,'Widget 1499',167.33,False
1500,'Widget 1500',3.0,True
1501,'Widget 1501',5.33,False
1502,'Widget 1502',7.67,True
1503,'Widget 1503',10.0,False
1504,'Widget 1504',12.33,True
1505,'Widget 1505',14.67,False
1506,'Widget 1506',17.0,True
1507,'Widget 1507',19.33,False
1508,'Widget 1508',21.67,True
1509,'Widget 1509',24.0,False
1510,'Widget 1510',26.33,True
1511,'Widget 1511',28.67,False
1512,'Widget 1512',31.0,True
1513,'Widget 1513',33.33,False
1514,'Widget 1514',35.67,True
1515,'Widget 1515',38.0,False
1516,'Widget 1516',40.33,True
1517,'Widget 1517',42.67,False
1518,'Widget 1518',45.0,True
1519,'Widget 1519',47.33,False
1520,'Widget 1520',49.67,True
1521,'Widget 1521',52.0,False
1522,'Widget 1522',54.33,True
1523,'Widget 1523',56.67,False
1524,'Widget 1524',59.0,True
1525,'Widget 1525',61.33,False
1526,'Widget 1526',63.67,True
1527,'Widget 1527',66.0,False
1528,'Widget 1528',68.33,True
1529,'Widget 1529',70.67,False
1530,'Widget 1530',73.0,True
1531,'Widget 1531',75.33,False
1532,'Widget 1532',77.67,True
1533,'Widget 1533',80.0,False
1534,'Widget 1534',82.33,True
1535,'Widget 1535',84.67,False
1536,'Widget 1536',87.0,True
1537,'Widget 1537',89.33,False
1538,'Widget 1538',91.67,True
1539,'Widget 1539',94.0,False
1540,'Widget 1540',96.33,True
1541,'Widget 1541',98.67,False
1542,'Widget 1542',101.0,True
1543,'Widget 1543',103.33,False
1544,'Widget 1544',105.67,True
1545,'Widget 1545',108.0,False
1546,'Widget 1546',110.33,True
1547,'Widget 1547',112.67,False
1548,'Widget 1548',115.0,True
1549,'Widget 1549',117.33,False
1550,'Widget 1550',119.67,True
1551,'Widget 1551',122.0,False
1552,'Widget 1552',124.33,True
1553,'Widget 1553',126.67,False
1554,'Widget 1554',129.0,True
1555,'Widget 1555',131.33,False
1556,'Widget 1556',133.67,True
1557,'Widget 1557',136.0,False
1558,'Widget 1558',138.33,True
1559,'Widget 1559',140.67,False
1560,'Widget 1560',143.0,True
1561,'Widget 1561',145.33,False
1562,'Widget 1562',147.67,True
1563,'Widget 1563',150.0,False
1564,'Widget 1564',152.33,True
1565,'Widget 1565',154.67,False
1566,'Widget 1566',157.0,True
1567,'Widget 1567',159.33,False
1568,'Widget 1568',161.67,True
1569,'Widget 1569',164.0,False
1570,'Widget 1570',166.33,True
1571,'Widget 1571',168.67,False
1572,'Widget 1572',4.33,True
1573,'Widget 1573',6.67,False
1574,'Widget 1574',9.0,True
1575,'Widget 1575',11.33,False
1576,'Widget 1576',13.67,True
1577,'Widget 1577',16.0,False
1578,'Widget 1578',18.33,True
1579,'Widget 1579',20.67,False
1580,'Widget 1580',23.0,True
1581,'Widget 1581',25.33,False
1582,'Widget 1582',27.67,True
1583,'Widget 1583',30.0,False
1584,'Widget 1584',32.33,True
1585,'Widget 1585',34.67,False
1586,'Widget 1586',37.0,True
1587,'Widget 1587',39.33,False
1588,'Widget 1588',41.67,True
1589,'Widget 1589',44.0,False
1590,'Widget 1590',46.33,True
1591,'Widget 1591',48.67,False
1592,'Widget 1592',51.0,True
1593,'Widget 1593',53.33,False
1594,'Widget 1594',55.67,True
1595,'Widget 1595',58.0,False
1596,'Widget 1596',60.33,True
1597,'Widget 1597',62.67,False
1598,'Widget 1598',65.0,True
1599,'Widget 1599',67.33,False
1600,'Widget 1600',69.67,True
1601,'Widget 1601',72.0,False
1602,'Widget 1602',74.33,True
1603,'Widget 1603',76.67,False
1604,'Widget 1604',79.0,True
1605,'Widget 1605',81.33,False
1606,'Widget 1606',83.67,True
1607,'Widget 1607',86.0,False
1608,'Widget 1608',88.33,True
1609,'Widget 1609',90.67,False
1610,'Widget 1610',93.0,True
1611,'Widget 1611',95.33,False
1612,'Widget 1612',97.67,True
1613,'Widget 1613',100.0,False
1614,'Widget 1614',102.33,True
1615,'Widget 1615',104.67,False
1616,'Widget 1616',107.0,True
1617,'Widget 1617',109.33,False
1618,'Widget 1618',111.67,True
1619,'Widget 1619',114.0,False
1620,'Widget 1620',116.33,True
1621,'Widget 1621',118.67,False
1622,'Widget 1622',121.0,True
1623,'Widget 1623',123.33,False
1624,'Widget 1624',125.67,True
1625,'Widget 1625',128.0,False
1626,'Widget 1626',130.33,True
1627,'Widget 1627',132.67,False
1628,'Widget 1628',135.0,True
1629,'Widget 1629',137.33,False
1630,'Widget 1630',139.67,True
1631,'Widget 1631',142.0,False
1632,'Widget 1632',144.33,True
1633,'Widget 1633',146.67,False
1634,'Widget 1634',149.0,True
1635,'Widget 1635',151.33,False
1636,'Widget 1636',153.67,True
1637,'Widget 1637',156.0,False
1638,'Widget 1638',158.33,True
1639,'Widget 1639',160.67,False
1640,'Widget 1640',163.0,True
1641,'Widget 1641',165.33,False
1642,'Widget 1642',167.67,True
1643,'Widget 1643',3.33,False
1644,'Widget 1644',5.67,True
1645,'Widget 1645',8.0,False
1646,'Widget 1646',10.33,True
1647,'Widget 1647',12.67,False
1648,'Widget 1648',15.0,True
1649,'Widget 1649',17.33,False
1650,'Widget 1650',19.67,True
1651,'Widget 1651',22.0,False
1652,'Widget 1652',24.33,True
1653,'Widget 1653',26.67,False
1654,'Widget 1654',29.0,True
1655,'Widget 1655',31.33,False
1656,'Widget 1656',33.67,True
1657,'Widget 1657',36.0,False
1658,'Widget 1658',38.33,True
1659,'Widget 1659',40.67,False
1660,'Widget 1660',43.0,True
1661,'Widget 1661',45.33,False
1662,'Widget 1662',47.67,True
1663,'Widget 1663',50.0,False
1664,'Widget 1664',52.33,True
1665,'Widget 1665',54.67,False
1666,'Widget 1666',57.0,True
1667,'Widget 1667',59.33,False
1668,'Widget 1668',61.67,True
1669,'Widget 1669',64.0,False
1670,'Widget 1670',66.33,True
1671,'Widget 1671',68.67,False
1672,'Widget 1672',71.0,True
1673,'Widget 1673',73.33,False
1674,'Widget 1674',75.67,True
1675,'Widget 1675',78.0,False
1676,'Widget 1676',80.33,True
1677,'Widget 1677',82.67,False
1678,'Widget 1678',85.0,True
1679,'Widget 1679',87.33,False
1680,'Widget 1680',89.67,True
1681,'Widget 1681',92.0,False
1682,'Widget 1682',94.33,True
1683,'Widget 1683',96.67,False
1684,'Widget 1684',99.0,True
1685,'Widget 1685',101.33,False
1686,'Widget 1686',103.67,True
1687,'Widget 1687',106.0,False
1688,'Widget 1688',108.33,True
1689,'Widget 1689',110.67,False
1690,'Widget 1690',113.0,True
1691,'Widget 1691',115.33,False
1692,'Widget 1692',117.67,True
1693,'Widget 1693',120.0,False
1694,'Widget 1694',122.33,True
1695,'Widget 1695',124.67,False
1696,'Widget 1696',127.0,True
1697,'Widget 1697',129.33,False
1698,'Widget 1698',131.67,True
1699,'Widget 1699',134.0,False
1700,'Widget 1700',136.33,True
1701,'Widget 1701',138.67,False
1702,'Widget 1702',141.0,True
1703,'Widget 1703',143.33,False
1704,'Widget 1704',145.67,True
1705,'Widget 1705',148.0,False
1706,'Widget 1706',150.33,True
1707,'Widget 1707',152.67,False
1708,'Widget 1708',155.0,True
1709,'Widget 1709',157.33,False
1710,'Widget 1710',159.67,True
1711,'Widget 1711',162.0,False
1712,'Widget 1712',164.33,True
1713,'Widget 1713',166.67,False
1714,'Widget 1714',169.0,True
1715,'Widget 1715',4.67,False
1716,'Widget 1716',7.0,True
1717,'Widget 1717',9.33,False
1718,'Widget 1718',11.67,True
1719,'Widget 1719',14.0,False
1720,'Widget 1720',16.33,True
1721,'Widget 1721',18.67,False
1722,'Widget 1722',21.0,True
1723,'Widget 1723',23.33,False
1724,'Widget 1724',25.67,True
1725,'Widget 1725',28.0,False
1726,'Widget 1726',30.33,True
1727,'Widget 1727',32.67,False
1728,'Widget 1728',35.0,True
1729,'Widget 1729',37.33,False
1730,'Widget 1730',39.67,True
1731,'Widget 1731',42.0,False
1732,'Widget 1732',44.33,True
1733,'Widget 1733',46.67,False
1734,'Widget 1734',49.0,True
1735,'Widget 1735',51.33,False
1736,'Widget 1736',53.67,True
1737,'Widget 1737',56.0,False
1738,'Widget 1738',58.33,True
1739,'Widget 1739',60.67,False
1740,'Widget 1740',63.0,True
1741,'Widget 1741',65.33,False
1742,'Widget 1742',67.67,True
1743,'Widget 1743',70.0,False
1744,'Widget 1744',72.33,True
1745,'Widget 1745',74.67,False
1746,'Widget 1746',77.0,True
1747,'Widget 1747',79.33,False
1748,'Widget 1748',81.67,True
1749,'Widget 1749',84.0,False
1750,'Widget 1750',86.33,True
1751,'Widget 1751',88.67,False
1752,'Widget 1752',91.0,True
1753,'Widget 1753',93.33,False
1754,'Widget 1754',95.67,True
1755,'Widget 1755',98.0,False
1756,'Widget 1756',100.33,True
1757,'Widget 1757',102.67,False
1758,'Widget 1758',105.0,True
1759,'Widget 1759',107.33,False
1760,'Widget 1760',109.67,True
1761,'Widget 1761',112.0,False
1762,'Widget 1762',114.33,True
1763,'Widget 1763',116.67,False
1764,'Widget 1764',119.0,True
1765,'Widget 1765',121.33,False
1766,'Widget 1766',123.67,True
1767,'Widget 1767',126.0,False
1768,'Widget 1768',128.33,True
1769,'Widget 1769',130.67,False
1770,'Widget 1770',133.0,True
1771,'Widget 1771',135.33,False
1772,'Widget 1772',137.67,True
1773,'Widget 1773',140.0,False
1774,'Widget 1774',142.33,True
1775,'Widget 1775',144.67,False
1776,'Widget 1776',147.0,True
1777,'Widget 1777',149.33,False
1778,'Widget 1778',151.67,True
1779,'Widget 1779',154.0,False
1780,'Widget 1780',156.33,True
1781,'Widget 1781',158.67,False
1782,'Widget 1782',161.0,True
1783,'Widget 1783',163.33,False
1784,'Widget 1784',165.67,True
1785,'Widget 1785',168.0,False
1786,'Widget 1786',3.67,True
1787,'Widget 1787',6.0,False
1788,'Widget 1788',8.33,True
1789,'Widget 1789',10.67,False
1790,'Widget 1790',13.0,True
1791,'Widget 1791',15.33,False
1792,'Widget 1792',17.67,True
1793,'Widget 1793',20.0,False
1794,'Widget 1794',22.33,True
1795,'Widget 1795',24.67,False
1796,'Widget 1796',27.0,True
1797,'Widget 1797',29.33,False
1798,'Widget 1798',31.67,True
1799,'Widget 1799',34.0,False
1800,'Widget 1800',36.33,True
1801,'Widget 1801',38.67,False
1802,'Widget 1802',41.0,True
1803,'Widget 1803',43.33,False
1804,'Widget 1804',45.67,True
1805,'Widget 1805',48.0,False
1806,'Widget 1806',50.33,True
1807,'Widget 1807',52.67,False
1808,'Widget 1808',55.0,True
1809,'Widget 1809',57.33,False
1810,'Widget 1810',59.67,True
1811,'Widget 1811',62.0,False
1812,'Widget 1812',64.33,True
1813,'Widget 1813',66.67,False
1814,'Widget 1814',69.0,True
1815,'Widget 1815',71.33,False
1816,'Widget 1816',73.67,True
1817,'Widget 1817',76.0,False
1818,'Widget 1818',78.33,True
1819,'Widget 1819',80.67,False
1820,'Widget 1820',83.0,True
1821,'Widget 1821',85.33,False
1822,'Widget 1822',87.67,True
1823,'Widget 1823',90.0,False
1824,'Widget 1824',92.33,True
1825,'Widget 1825',94.67,False
1826,'Widget 1826',97.0,True
1827,'Widget 1827',99.33,False
1828,'Widget 1828',101.67,True
1829,'Widget 1829',104.0,False
1830,'Widget 1830',106.33,True
1831,'Widget 1831',108.67,False
1832,'Widget 1832',111.0,True
1833,'Widget 1833',113.33,False
1834,'Widget 1834',115.67,True
1835,'Widget 1835',118.0,False
1836,'Widget 1836',120.33,True
1837,'Widget 1837',122.67,False
1838,'Widget 1838',125.0,True
1839,'Widget 1839',127.33,False
1840,'Widget 1840',129.67,True
1841,'Widget 1841',132.0,False
1842,'Widget 1842',134.33,True
1843,'Widget 1843',136.67,False
1844,'Widget 1844',139.0,True
1845,'Widget 1845',141.33,False
1846,'Widget 1846',143.67,True
1847,'Widget 1847',146.0,False
1848,'Widget 1848',148.33,True
1849,'Widget 1849',150.67,False
1850,'Widget 1850',153.0,True
1851,'Widget 1851',155.33,False
1852,'Widget 1852',157.67,True
1853,'Widget 1853',160.0,False
1854,'Widget 1854',162.33,True
1855,'Widget 1855',164.67,False
1856,'Widget 1856',167.0,True
1857,'Widget 1857',169.33,False
1858,'Widget 1858',5.0,True
1859,'Widget 1859',7.33,False
1860,'Widget 1860',9.67,True
1861,'Widget 1861',12.0,False
1862,'Widget 1862',14.33,True
1863,'Widget 1863',16.67,False
1864,'Widget 1864',19.0,True
1865,'Widget 1865',21.33,False
1866,'Widget 1866',23.67,True
1867,'Widget 1867',26.0,False
1868,'Widget 1868',28.33,True
1869,'Widget 1869',30.67,False
1870,'Widget 1870',33.0,True
1871,'Widget 1871',35.33,False
1872,'Widget 1872',37.67,True
1873,'Widget 1873',40.0,False
1874,'Widget 1874',42.33,True
1875,'Widget 1875',44.67,False
1876,'Widget 1876',47.0,True
1877,'Widget 1877',49.33,False
1878,'Widget 1878',51.67,True
1879,'Widget 1879',54.0,False
1880,'Widget 1880',56.33,True
1881,'Widget 1881',58.67,False
1882,'Widget 1882',61.0,True
1883,'Widget 1883',63.33,False
1884,'Widget 1884',65.67,True
1885,'Widget 1885',68.0,False
1886,'Widget 1886',70.33,True
1887,'Widget 1887',72.67,False
1888,'Widget 1888',75.0,True
1889,'Widget 1889',77.33,False
1890,'Widget 1890',79.67,True
1891,'Widget 1891',82.0,False
1892,'Widget 1892',84.33,True
1893,'Widget 1893',86.67,False
1894,'Widget 1894',89.0,True
1895,'Widget 1895',91.33,False
1896,'Widget 1896',93.67,True
1897,'Widget 1897',96.0,False
1898,'Widget 1898',98.33,True
1899,'Widget 1899',100.67,False
1900,'Widget 1900',103.0,True
1901,'Widget 1901',105.33,False
1902,'Widget 1902',107.67,True
1903,'Widget 1903',110.0,False
1904,'Widget 1904',112.33,True
1905,'Widget 1905',114.67,False
1906,'Widget 1906',117.0,True
1907,'Widget 1907',119.33,False
1908,'Widget 1908',121.67,True
1909,'Widget 1909',124.0,False
1910,'Widget 1910',126.33,True
1911,'Widget 1911',128.67,False
1912,'Widget 1912',131.0,True
1913,'Widget 1913',133.33,False
1914,'Widget 1914',135.67,True
1915,'Widget 1915',138.0,False
1916,'Widget 1916',140.33,True
1917,'Widget 1917',142.67,False
1918,'Widget 1918',145.0,True
1919,'Widget 1919',147.33,False
1920,'Widget 1920',149.67,True
1921,'Widget 1921',152.0,False
1922,'Widget 1922',154.33,True
1923,'Widget 1923',156.67,False
1924,'Widget 1924',159.0,True
1925,'Widget 1925',161.33,False
1926,'Widget 1926',163.67,True
1927,'Widget 1927',166.0,False
1928,'Widget 1928',168.33,True
1929,'Widget 1929',4.0,False
1930,'Widget 1930',6.33,True
1931,'Widget 1931',8.67,False
1932,'Widget 1932',11.0,True
1933,'Widget 1933',13.33,False
1934,'Widget 1934',15.67,True
1935,'Widget 1935',18.0,False
1936,'Widget 1936',20.33,True
1937,'Widget 1937',22.67,False
1938,'Widget 1938',25.0,True
1939,'Widget 1939',27.33,False
1940,'Widget 1940',29.67,True
1941,'Widget 1941',32.0,False
1942,'Widget 1942',34.33,True
1943,'Widget 1943',36.67,False
1944,'Widget 1944',39.0,True
1945,'Widget 1945',41.33,False
1946,'Widget 1946',43.67,True
1947,'Widget 1947',46.0,False
1948,'Widget 1948',48.33,True
1949,'Widget 1949',50.67,False
1950,'Widget 1950',53.0,True
1951,'Widget 1951',55.33,False
1952,'Widget 1952',57.67,True
1953,'Widget 1953',60.0,False
1954,'Widget 1954',62.33,True
1955,'Widget 1955',64.67,False
1956,'Widget 1956',67.0,True
1957,'Widget 1957',69.33,False
1958,'Widget 1958',71.67,True
1959,'Widget 1959',74.0,False
1960,'Widget 1960',76.33,True
1961,'Widget 1961',78.67,False
1962,'Widget 1962',81.0,True
1963,'Widget 1963',83.33,False
1964,'Widget 1964',85.67,True
1965,'Widget 1965',88.0,False
1966,'Widget 1966',90.33,True
1967,'Widget 1967',92.67,False
1968,'Widget 1968',95.0,True
1969,'Widget 1969',97.33,False
1970,'Widget 1970',99.67,True
1971,'Widget 1971',102.0,False
1972,'Widget 1972',104.33,True
1973,'Widget 1973',106.67,False
1974,'Widget 1974',109.0,True
1975,'Widget 1975',111.33,False
1976,'Widget 1976',113.67,True
1977,'Widget 1977',116.0,False
1978,'Widget 1978',118.33,True
1979,'Widget 1979',120.67,False
1980,'Widget 1980',123.0,True
1981,'Widget 1981',125.33,False
1982,'Widget 1982',127.67,True
1983,'Widget 1983',130.0,False
1984,'Widget 1984',132.33,True
1985,'Widget 1985',134.67,False
1986,'Widget 1986',137.0,True
1987,'Widget 1987',139.33,False
1988,'Widget 1988',141.67,True
1989,'Widget 1989',144.0,False
1990,'Widget 1990',146.33,True
1991,'Widget 1991',148.67,False
1992,'Widget 1992',151.0,True
1993,'Widget 1993',153.33,False
1994,'Widget 1994',155.67,True
1995,'Widget 1995',158.0,False
1996,'Widget 1996',160.33,True
1997,'Widget 1997',162.67,False
1998,'Widget 1998',165.0,True
1999,'Widget 1999',167.33,False
2000,'Widget 2000',3.0,True
